>> Start of run:   3-DEC-2015  21:48:28

reinit: Reading from standard input
************************** Dump of input data file ****************************
#(1) General system descriptors
SystemName            GRP_doping    # Descriptive name of the system
SystemLabel           GRP_doping    # Short name for naming files
%include STRUCT.fdf
%include KPT.fdf
%include BASIS.fdf
#%include TS.fdf # for transiesta calculation
#(4) DFT, Grid, SCF
XC.functional         GGA           # LDA or GGA (default = LDA)
XC.authors            PBE           # CA (Ceperley-Aldr) = PZ
                                    #    (Perdew-Zunger) - LDA - Default
                                    # PW92 (Perdew-Wang-92) - LDA
                                    # PBE (Perdew-Burke-Ernzerhof) - GGA
MeshCutoff            200.000000    Ry      # Default: 50.0 Ry ~ 0.444 Bohr
                                    #         100.0 Ry ~ 0.314 Bohr
MaxSCFIterations      500           # Default: 50
DM.MixingWeight       0.05          # Default: 0.25
DM.NumberPulay        10            # Default: 0
DM.PulayOnFile        F             # SystemLabel.P1, SystemLabel.P2
DM.Tolerance          1.d-4         # Default: 1.d-4
DM.UseSaveDM          .true.        # because of the bug
SCFMustConverge       .true.
NeglNonOverlapInt     F             # Default: F
#(5) Eigenvalue problem: order-N or diagonalization
SolutionMethod        Diagon        # or Transiesta
ElectronicTemperature 300.0 K       # Default: 300.0 K
#(6) Molecular dynamics and relaxations
#MD.TypeOfRun          CG            # Type of dynamics:
#MD.VariableCell       F
#MD.NumCGsteps         0           # 0 for single-point / 100 for gopt
#MD.MaxCGDispl         0.2 Bohr      # Default: 0.2 Bohr
#MD.MaxForceTol        0.02 eV/Ang   # Default: 0.04 eV/Ang
#MD.MaxStressTol       1.0 GPa       # Default: 1.0 GPa
# Geometry Constraints
#%block GeometryConstraints
#	position from 1 to 44
eometryConstraints
nesScale   pi/a
%block BandLines
 1   0.00000000  0.00000000  0.00000000
50   0.00000000  0.07809418  0.00000000
50   0.04509075  0.07809242  0.00000000
20   0.00000000  0.00000000  0.00000000
%endblock BandLines
************************** End of input data file *****************************

reinit: -----------------------------------------------------------------------
reinit: System Name: GRP_doping
reinit: -----------------------------------------------------------------------
reinit: System Label: GRP_doping
reinit: -----------------------------------------------------------------------

initatom: Reading input for the pseudopotentials and atomic orbitals ----------
 Species number:            1  Label: B Atomic number:           5
 Species number:            2  Label: C Atomic number:           6
Ground state valence configuration:   2s02  2p01
Reading pseudopotential information in formatted form from B.psf

Valence configuration for pseudopotential generation:
2s( 2.00) rc: 1.74
2p( 1.00) rc: 1.74
3d( 0.00) rc: 1.74
4f( 0.00) rc: 1.74
Ground state valence configuration:   2s02  2p02
Reading pseudopotential information in formatted form from C.psf

Valence configuration for pseudopotential generation:
2s( 2.00) rc: 1.54
2p( 2.00) rc: 1.54
3d( 0.00) rc: 1.54
4f( 0.00) rc: 1.54
For B, standard SIESTA heuristics set lmxkb to 3
 (one more than the basis l, including polarization orbitals).
Use PS.lmax or PS.KBprojectors blocks to override.
For C, standard SIESTA heuristics set lmxkb to 3
 (one more than the basis l, including polarization orbitals).
Use PS.lmax or PS.KBprojectors blocks to override.

<basis_specs>
B                    Z=   5    Mass=  10.810        Charge= 0.17977+309
Lmxo=1 Lmxkb= 3    BasisType=split      Semic=F
L=0  Nsemic=0  Cnfigmx=2
          n=1  nzeta=2  polorb=0
            splnorm:   0.15000
               vcte:    0.0000
               rinn:    0.0000
                rcs:    0.0000      0.0000
            lambdas:    1.0000      1.0000
L=1  Nsemic=0  Cnfigmx=2
          n=1  nzeta=2  polorb=1
            splnorm:   0.15000
               vcte:    0.0000
               rinn:    0.0000
                rcs:    0.0000      0.0000
            lambdas:    1.0000      1.0000
L=0  Nkbl=1  erefs: 0.17977+309
L=1  Nkbl=1  erefs: 0.17977+309
L=2  Nkbl=1  erefs: 0.17977+309
L=3  Nkbl=1  erefs: 0.17977+309
</basis_specs>

atom: Called for B                     (Z =   5)

read_vps: Pseudopotential generation method:
read_vps: ATM3      Troullier-Martins
Total valence charge:    3.00000

read_vps: Pseudopotential includes a core correction:
read_vps: Pseudo-core for xc-correction

xc_check: Exchange-correlation functional:
xc_check: GGA Perdew, Burke & Ernzerhof 1996
V l=0 = -2*Zval/r beyond r=  1.7165
V l=1 = -2*Zval/r beyond r=  1.7165
V l=2 = -2*Zval/r beyond r=  1.7165
V l=3 = -2*Zval/r beyond r=  1.6951
All V_l potentials equal beyond r=  1.7165
This should be close to max(r_c) in ps generation
All pots = -2*Zval/r beyond r=  1.7165

VLOCAL1: 99.0% of the norm of Vloc inside     14.733 Ry
VLOCAL1: 99.9% of the norm of Vloc inside     33.577 Ry
atom: Maximum radius for 4*pi*r*r*local-pseudopot. charge    2.04484
atom: Maximum radius for r*vlocal+2*Zval:    1.75994
GHOST: No ghost state for L =  0
GHOST: No ghost state for L =  1
GHOST: No ghost state for L =  2
GHOST: No ghost state for L =  3

KBgen: Kleinman-Bylander projectors:
   l= 0   rc=  1.897051   el= -0.693730   Ekb=  4.595746   kbcos=  0.286105
   l= 1   rc=  1.920920   el= -0.265236   Ekb= -2.350715   kbcos= -0.315747
   l= 2   rc=  2.044840   el=  0.002055   Ekb= -0.690767   kbcos= -0.013822
   l= 3   rc=  2.149707   el=  0.003188   Ekb= -0.315358   kbcos= -0.002055

KBgen: Total number of  Kleinman-Bylander projectors:   16
atom: -------------------------------------------------------------------------

atom: SANKEY-TYPE ORBITALS:
atom: Selected multiple-zeta basis: split

SPLIT: Orbitals with angular momentum L= 0

SPLIT: Basis orbitals for state 2s

SPLIT: PAO cut-off radius determined from an
SPLIT: energy shift=  0.007350 Ry

   izeta = 1
                 lambda =    1.000000
                     rc =    5.422032
                 energy =   -0.686029
                kinetic =    0.576707
    potential(screened) =   -1.262736
       potential(ionic) =   -3.271094

   izeta = 2
                 rmatch =    4.222573
              splitnorm =    0.150000
                 energy =   -0.602132
                kinetic =    0.858975
    potential(screened) =   -1.461107
       potential(ionic) =   -3.582536

[...]

SPLIT: Basis orbitals for state 2p

[...]

POLgen: Perturbative polarization orbital with L=  2

POLgen: Polarization orbital for state 2p

   izeta = 1
                     rc =    6.790259
                 energy =    0.684082
                kinetic =    1.471481
    potential(screened) =   -0.787399
       potential(ionic) =   -2.406985
atom: Total number of Sankey-type orbitals: 13

atm_pop: Valence configuration (for local Pseudopot. screening):
 2s( 2.00)
 2p( 1.00)
Vna: chval, zval:    3.00000   3.00000

Vna:  Cut-off radius for the neutral-atom potential:   6.790259
comcore: Pseudo-core radius Rcore=  2.122997

atom: _________________________________________________________________________

<basis_specs>
C                    Z=   6    Mass=  12.010        Charge= 0.17977+309
Lmxo=1 Lmxkb= 3    BasisType=split      Semic=F
L=0  Nsemic=0  Cnfigmx=2
          n=1  nzeta=2  polorb=0
            splnorm:   0.15000
               vcte:    0.0000
               rinn:    0.0000
                rcs:    0.0000      0.0000
            lambdas:    1.0000      1.0000
L=1  Nsemic=0  Cnfigmx=2
          n=1  nzeta=2  polorb=1
            splnorm:   0.15000
               vcte:    0.0000
               rinn:    0.0000
                rcs:    0.0000      0.0000
            lambdas:    1.0000      1.0000
L=0  Nkbl=1  erefs: 0.17977+309
L=1  Nkbl=1  erefs: 0.17977+309
L=2  Nkbl=1  erefs: 0.17977+309
L=3  Nkbl=1  erefs: 0.17977+309
</basis_specs>

atom: Called for C                     (Z =   6)

read_vps: Pseudopotential generation method:
read_vps: ATM3      Troullier-Martins
Total valence charge:    4.00000

read_vps: Pseudopotential includes a core correction:
read_vps: Pseudo-core for xc-correction

xc_check: Exchange-correlation functional:
xc_check: GGA Perdew, Burke & Ernzerhof 1996
V l=0 = -2*Zval/r beyond r=  1.5227
V l=1 = -2*Zval/r beyond r=  1.5227
V l=2 = -2*Zval/r beyond r=  1.5227
V l=3 = -2*Zval/r beyond r=  1.5038
All V_l potentials equal beyond r=  1.5227
This should be close to max(r_c) in ps generation
All pots = -2*Zval/r beyond r=  1.5227

VLOCAL1: 99.0% of the norm of Vloc inside     18.722 Ry
VLOCAL1: 99.9% of the norm of Vloc inside     42.668 Ry
atom: Maximum radius for 4*pi*r*r*local-pseudopot. charge    1.83678
atom: Maximum radius for r*vlocal+2*Zval:    1.58088
GHOST: No ghost state for L =  0
GHOST: No ghost state for L =  1
GHOST: No ghost state for L =  2
GHOST: No ghost state for L =  3

KBgen: Kleinman-Bylander projectors:
   l= 0   rc=  1.704034   el= -1.009801   Ekb=  5.335044   kbcos=  0.316824
   l= 1   rc=  1.704034   el= -0.388707   Ekb= -3.785862   kbcos= -0.366464
   l= 2   rc=  1.791422   el=  0.001971   Ekb= -0.970471   kbcos= -0.009212
   l= 3   rc=  1.859892   el=  0.003065   Ekb= -0.399525   kbcos= -0.001223

KBgen: Total number of  Kleinman-Bylander projectors:   16
atom: -------------------------------------------------------------------------

atom: SANKEY-TYPE ORBITALS:
atom: Selected multiple-zeta basis: split

[...]

SPLIT: Basis orbitals for state 2s

[...]

SPLIT: Orbitals with angular momentum L= 1

SPLIT: Basis orbitals for state 2p

SPLIT: PAO cut-off radius determined from an
SPLIT: energy shift=  0.007350 Ry

   izeta = 1
                 lambda =    1.000000
                     rc =    5.658549
                 energy =   -0.381140
                kinetic =    2.399701
    potential(screened) =   -2.780841
       potential(ionic) =   -6.206085

   izeta = 2
                 rmatch =    3.653288
              splitnorm =    0.150000
                 energy =   -0.249149
                kinetic =    3.542762
    potential(screened) =   -3.791911
       potential(ionic) =   -7.581078

POLgen: Perturbative polarization orbital with L=  2

POLgen: Polarization orbital for state 2p

   izeta = 1
                     rc =    5.658549
                 energy =    1.109913
                kinetic =    2.304789
    potential(screened) =   -1.194876
       potential(ionic) =   -4.013592
atom: Total number of Sankey-type orbitals: 13

atm_pop: Valence configuration (for local Pseudopot. screening):
 2s( 2.00)
 2p( 2.00)
Vna: chval, zval:    4.00000   4.00000

Vna:  Cut-off radius for the neutral-atom potential:   5.658549
comcore: Pseudo-core radius Rcore=  1.791422

atom: _________________________________________________________________________

prinput: Basis input ----------------------------------------------------------

PAO.BasisType split

%block ChemicalSpeciesLabel
    1    5 B                       # Species index, atomic number, species label
    2    6 C                       # Species index, atomic number, species label
[...]
siesta:     34.83046  14.76208   0.00000  2        8
siesta:     30.17428   9.38598   0.00000  2        9
siesta:     32.50237  10.72953   0.00000  2       10
siesta:     27.84618   5.35343   0.00000  2       11
siesta:     30.17426   6.69698   0.00000  2       12
siesta:     27.84630  21.48363   0.00000  2       13
siesta:     30.17438  22.82718   0.00000  2       14
siesta:      6.89163   1.32088   0.00000  2       15
siesta:      9.21971   2.66443   0.00000  2       16
siesta:     11.54777   1.32088   0.00000  2       17
siesta:     13.87585   2.66443   0.00000  2       18
siesta:     16.20391   1.32088   0.00000  2       19
siesta:     18.53199   2.66443   0.00000  2       20
siesta:     20.86194   1.32088   0.00000  2       21
siesta:     23.19002   2.66443   0.00000  2       22
siesta:     25.51808   1.32088   0.00000  2       23
siesta:     27.84616   2.66443   0.00000  2       24
siesta:      4.56359   5.35343   0.00000  2       25
siesta:      6.89167   6.69698   0.00000  2       26
siesta:      9.21973   5.35343   0.00000  2       27
siesta:     11.54781   6.69698   0.00000  2       28
siesta:     13.87587   5.35343   0.00000  2       29
siesta:     16.20395   6.69698   0.00000  2       30
siesta:     18.53390   5.35343   0.00000  2       31
siesta:     20.86198   6.69698   0.00000  2       32
siesta:     23.19004   5.35343   0.00000  2       33
siesta:     25.51812   6.69698   0.00000  2       34
siesta:      6.89169   9.38598   0.00000  2       35
siesta:      9.21977  10.72953   0.00000  2       36
siesta:     11.54783   9.38598   0.00000  2       37
siesta:     13.87591  10.72953   0.00000  2       38
siesta:     16.20397   9.38598   0.00000  2       39
siesta:     18.53205  10.72953   0.00000  2       40
siesta:     20.86200   9.38598   0.00000  2       41
siesta:     23.19008  10.72953   0.00000  2       42
siesta:      9.21979  13.41853   0.00000  2       43
siesta:     11.54787  14.76208   0.00000  2       44
siesta:     13.87593  13.41853   0.00000  2       45
siesta:     16.20401  14.76208   0.00000  2       46
siesta:     18.53396  13.41853   0.00000  2       47
siesta:     20.86204  14.76208   0.00000  2       48
siesta:     11.54789  17.45108   0.00000  2       49
siesta:     13.87597  18.79463   0.00000  2       50
siesta:     16.20403  17.45108   0.00000  2       51
siesta:     18.53211  18.79463   0.00000  2       52
siesta:     13.87599  21.48363   0.00000  2       53
siesta:     16.20407  22.82718   0.00000  2       54
siesta:     18.53402  21.48363   0.00000  2       55
siesta:     20.86210  22.82718   0.00000  2       56
siesta:     25.51814   9.38598   0.00000  2       57
siesta:     27.84622  10.72953   0.00000  2       58
siesta:     23.19010  13.41853   0.00000  2       59
siesta:     25.51818  14.76208   0.00000  2       60
siesta:     20.86206  17.45108   0.00000  2       61
siesta:     23.19014  18.79463   0.00000  2       62
siesta:     27.84624  13.41853   0.00000  2       63
siesta:     30.17432  14.76208   0.00000  2       64
siesta:     25.51820  17.45108   0.00000  2       65
siesta:     27.84628  18.79463   0.00000  2       66
siesta:     23.19016  21.48363   0.00000  2       67
siesta:     25.51824  22.82718   0.00000  2       68
siesta:     30.17434  17.45108   0.00000  2       69
siesta:     32.50243  18.79463   0.00000  2       70
siesta:     37.16048  21.48363   0.00000  2       71
siesta:     39.48855  22.82718   0.00000  2       72

siesta: System type = slab

initatomlists: Number of atoms, orbitals, and projectors:     72   936  1152

siesta: ******************** Simulation parameters ****************************
siesta:
siesta: The following are some of the parameters of the simulation.
siesta: A complete list of the parameters used, including default values,
siesta: can be found in file out.fdf
siesta:
redata: Non-Collinear-spin run           =     F
redata: SpinPolarized (Up/Down) run      =     F
redata: Number of spin components        =     1
redata: Long output                      =     F
redata: Number of Atomic Species         =        2
redata: Charge density info will appear in .RHO file
redata: Write Mulliken Pop.              =     NO
redata: Mesh Cutoff                      =   200.0000  Ry
redata: Net charge of the system         =     0.0000 |e|
redata: Max. number of SCF Iter          =      500
redata: SCF convergence failure will abort job
redata: Performing Pulay mixing using    =    10 iterations
redata: Mix DM in first SCF step ?       =     F
redata: Write Pulay info on disk?        =     F
redata: Discard 1st Pulay DM after  kick =     F
redata: New DM Mixing Weight             =     0.0500
redata: New DM Occupancy tolerance       = 0.000000000001
redata: No kicks to SCF
redata: DM Mixing Weight for Kicks       =     0.5000
redata: DM Tolerance for SCF             =     0.000100
redata: Require Energy convergence for SCF =     F
redata: DM Energy tolerance for SCF      =     0.000100 eV
redata: Require Harris convergence for SCF =     F
redata: DM Harris energy tolerance for SCF =     0.000100 eV
redata: Using Saved Data (generic)   =     F
redata: Use continuation files for DM    =     T
redata: Neglect nonoverlap interactions  =     F
redata: Method of Calculation            =     Diagonalization
redata: Divide and Conquer               =     T
redata: Electronic Temperature           =     0.0019  Ry
redata: Fix the spin of the system       =     F
redata: Dynamics option                  =     Verlet MD run
redata: Initial MD time step             =        1
redata:   Final MD time step             =        1
redata: Length of MD time step           =     1.0000  fs
redata: Initial Temperature of MD run    =     0.0000  K
redata: Perform a MD quench              =     F
redata: ***********************************************************************
Total number of electrons:   287.000000
Total ionic charge:   287.000000

* ProcessorY, Blocksize:    2  24

k-point displ. along   1 input, could be:     0.00    0.50
k-point displ. along   2 input, could be:     0.00    0.50
 Kpoints in:           60 . Kpoints trimmed:           56

siesta: k-grid: Number of k-points =    56
siesta: k-grid: Cutoff (effective) =     5.000 Ang
siesta: k-grid: Supercell and displacements
siesta: k-grid:   10   0   0      0.000
siesta: k-grid:    0  10   0      0.000
siesta: k-grid:    0   0   1      0.000
Naive supercell factors:     2    2    2

superc: Internal auxiliary supercell:     2 x     2 x     2  =       8
superc: Number of atoms, orbitals, and projectors:    576   7488   9216

siesta:                 ==============================
                            Begin MD step =      1

superc: Internal auxiliary supercell:     2 x     2 x     2  =       8
superc: Number of atoms, orbitals, and projectors:    576   7488   9216

outcell: Unit cell vectors (Ang):
       14.785000    0.000000    0.000000
        7.392500   12.804185    0.000000
        0.000000    0.000000   10.000000

outcell: Cell vector modules (Ang)   :   14.785000   14.785000   10.000000
outcell: Cell angles (23,13,12) (deg):     90.0000     90.0000     60.0000
outcell: Cell volume (Ang**3)        :   1893.0988
New_DM. Step:     1
Initializing Density Matrix...

iodm: Reading Density Matrix from files

InitMesh: MESH =   120 x   120 x    90 =     1296000
InitMesh: Mesh cutoff (required, used) =   200.000   223.865 Ry

stepf: Fermi-Dirac step function

siesta: Program's energy decomposition (eV):
siesta: Ebs     =     -3909.180618
siesta: Eions   =     18274.954360
siesta: Ena     =      3953.090754
siesta: Ekin    =      7784.495150
siesta: Enl     =      -781.808613
siesta: DEna    =      -292.109939
siesta: DUscf   =        26.298365
siesta: DUext   =         0.000000
siesta: Exc     =     -4042.750677
siesta: eta*DQ  =         0.000000
siesta: Emadel  =         0.000000
siesta: Emeta   =         0.000000
siesta: Emolmec =         0.000000
siesta: Ekinion =         0.000000
siesta: Eharris =    -11627.739976
siesta: Etot    =    -11627.739319
siesta: FreeEng =    -11627.739319

siesta: E_KS(eV) =           -11627.7400

siesta: E_KS - E_eggbox =    -11627.7400

siesta: Atomic forces (eV/Ang):
   Tot    0.194850   -0.294046    0.000000
   Max    3.332954
   Res    0.410098    sqrt( Sum f_i^2 / 3N )
   Max    3.332954    constrained

Stress-tensor-Voigt (kbar):      -45.12      -44.49       -0.02       -0.45        0.00        0.00
(Free)E + p*V (eV/cell)   -11592.4452
Target enthalpy (eV/cell)   -11627.7450

siesta: Stress tensor (static) (eV/Ang**3):
        -0.028163   -0.000283    0.000000
        -0.000283   -0.027765    0.000000
         0.000000    0.000000   -0.000011

siesta: Pressure (static):         29.87541728  kBar

siesta: Stress tensor (total) (eV/Ang**3):
        -0.028163   -0.000283    0.000000
        -0.000283   -0.027765    0.000000
         0.000000    0.000000   -0.000011

siesta: Pressure (total):         29.87541728  kBar

siesta: Temp_ion =       0.000 K

Computing bands...

siesta: Program's energy decomposition (eV):
siesta: Ebs     =     -3909.180618
siesta: Eions   =     18274.954360
siesta: Ena     =      3953.090754
siesta: Ekin    =      7784.488547
siesta: Enl     =      -781.801865
siesta: DEna    =      -292.110938
siesta: DUscf   =        26.298607
siesta: DUext   =         0.000000
siesta: Exc     =     -4042.750721
siesta: eta*DQ  =         0.000000
siesta: Emadel  =         0.000000
siesta: Emeta   =         0.000000
siesta: Emolmec =         0.000000
siesta: Ekinion =         0.000000
siesta: Eharris =    -11627.739976
siesta: Etot    =    -11627.739975
siesta: FreeEng =    -11627.745030

siesta: Final energy (eV):
siesta:  Band Struct. =   -3909.180618
siesta:       Kinetic =    7784.488547
siesta:       Hartree =   22951.146922
siesta:    Ext. field =       0.000000
siesta:   Exch.-corr. =   -4042.750721
siesta:  Ion-electron =  -53073.262429
siesta:       Ion-ion =   14752.637706
siesta:       Ekinion =       0.000000
siesta:         Total =  -11627.739975

siesta: Atomic forces (eV/Ang):
siesta:      1   -0.006204   -0.025665    0.000000
siesta:      2    2.916861    1.682068    0.000000
siesta:      3    0.053896    0.019034    0.000000
siesta:      4   -0.058217    0.021773    0.000000
siesta:      5    0.049956    0.016974    0.000000
siesta:      6   -0.019923   -0.084167    0.000000
siesta:      7    0.006797   -0.062617    0.000000
siesta:      8    0.021894   -0.007030    0.000000
siesta:      9    0.007632   -0.257723    0.000000
siesta:     10    0.064527    0.075998    0.000000
siesta:     11   -0.487532   -0.278621    0.000000
siesta:     12    0.012826    0.291704    0.000000
siesta:     13   -0.038221    0.018532    0.000000
siesta:     14   -0.003273    0.032597    0.000000
siesta:     15    0.023817    0.531533    0.000000
siesta:     16    0.093157   -0.154161    0.000000
siesta:     17    0.063143    0.012200    0.000000
siesta:     18   -0.003301   -0.030205    0.000000
siesta:     19    0.012458   -0.026510    0.000000
siesta:     20    0.042095   -0.034306    0.000000
siesta:     21   -0.083126    0.017060    0.000000
siesta:     22   -0.097983   -0.156140    0.000000
siesta:     23   -0.005695    0.529762    0.000000
siesta:     24   -2.903331    1.674885    0.000000
siesta:     25    0.487748   -0.272178    0.000000
siesta:     26   -0.087604    0.160670    0.000000
siesta:     27    0.002450   -0.012734    0.000000
siesta:     28   -0.005996   -0.000839    0.000000
siesta:     29    0.014934    0.004046    0.000000
siesta:     30    0.029891   -0.013594    0.000000
siesta:     31   -0.038773    0.012481    0.000000
siesta:     32    0.002362   -0.001319    0.000000
siesta:     33    0.008899   -0.012779    0.000000
siesta:     34    0.084079    0.159499    0.000000
siesta:     35    0.056696    0.018528    0.000000
siesta:     36   -0.028278    0.014853    0.000000
siesta:     37    0.021078   -0.014332    0.000000
siesta:     38   -0.006624    0.005823    0.000000
siesta:     39    0.007877   -0.010908    0.000000
siesta:     40    0.046497   -0.002019    0.000000
siesta:     41   -0.038209   -0.005983    0.000000
siesta:     42    0.020024    0.013751    0.000000
siesta:     43   -0.004104   -0.007241    0.000000
siesta:     44   -0.024155    0.020225    0.000000
siesta:     45    0.020932   -0.021599    0.000000
siesta:     46    0.029503    0.000502    0.000000
siesta:     47   -0.044568   -0.013993    0.000000
siesta:     48    0.020010    0.017809    0.000000
siesta:     49    0.005524   -0.075480    0.000000
siesta:     50   -0.181878   -0.002763    0.000000
siesta:     51    0.007094   -0.006123    0.000000
siesta:     52    0.218982   -0.010845    0.000000
siesta:     53    0.503217   -0.311276    0.000000
siesta:     54    0.027428   -3.332954    0.000000
siesta:     55   -0.512566   -0.299326    0.000000
siesta:     56    0.244283   -0.123986    0.000000
siesta:     57   -0.058665    0.012562    0.000000
siesta:     58   -0.051667    0.080970    0.000000
siesta:     59    0.002547   -0.012900    0.000000
siesta:     60   -0.008746   -0.002630    0.000000
siesta:     61   -0.035806   -0.070159    0.000000
siesta:     62    0.037169   -0.081632    0.000000
siesta:     63    0.007439   -0.061456    0.000000
siesta:     64   -0.000647    0.027952    0.000000
siesta:     65   -0.037114    0.015576    0.000000
siesta:     66    0.020704   -0.012164    0.000000
siesta:     67   -0.206913    0.116122    0.000000
siesta:     68    0.089266    0.027498    0.000000
siesta:     69    0.006088   -0.009806    0.000000
siesta:     70   -0.022436   -0.011450    0.000000
siesta:     71    0.178676    0.121955    0.000000
siesta:     72   -0.274052   -0.117373    0.000000
siesta: ----------------------------------------
siesta:    Tot    0.194850   -0.294046    0.000000

siesta: Stress tensor (static) (eV/Ang**3):
siesta:    -0.028163   -0.000283    0.000000
siesta:    -0.000283   -0.027765    0.000000
siesta:     0.000000    0.000000   -0.000011

siesta: Cell volume =       1893.098801 Ang**3

siesta: Pressure (static):
siesta:                Solid            Molecule  Units
siesta:           0.00020308          0.00037076  Ry/Bohr**3
siesta:           0.01864657          0.03404195  eV/Ang**3
siesta:          29.87541728         54.54181423  kBar
(Free)E+ p_basis*V_orbitals  =      -11596.691457
(Free)Eharris+ p_basis*V_orbitals  =      -11596.692115

siesta: Electric dipole (a.u.)  =    0.000000    0.000000    0.000000
siesta: Electric dipole (Debye) =    0.000000    0.000000    0.000000

elaps:  Routine       Calls   Time/call    Tot.time        %
elaps:  siesta            1     309.681     309.681   100.00
elaps:  Setup             1       0.361       0.361     0.12
elaps:  bands             3      36.641     109.922    35.50
elaps:  writewave         1       0.002       0.002     0.00
elaps:  KSV_init          1       0.000       0.000     0.00
elaps:  IterMD            1     199.220     199.220    64.33
elaps:  hsparse           1       0.049       0.049     0.02
elaps:  overlap           1       0.982       0.982     0.32
elaps:  IterSCF           1     176.285     176.285    56.92
elaps:  kinefsm           2       0.504       1.007     0.33
elaps:  nlefsm            2       2.403       4.807     1.55
elaps:  DHSCF             2      18.604      37.208    12.01
elaps:  DHSCF1            1       0.133       0.133     0.04
elaps:  DHSCF2            1       5.215       5.215     1.68
elaps:  REORD            18       0.002       0.035     0.01
elaps:  POISON            3       0.457       1.372     0.44
elaps:  DHSCF3            2      12.050      24.101     7.78
elaps:  rhoofd            2       3.904       7.808     2.52
elaps:  cellXC            2       0.446       0.892     0.29
elaps:  vmat              2       6.096      12.192     3.94
elaps:  MolMec            2       0.000       0.000     0.00
elaps:  diagon            1     154.182     154.182    49.79
elaps:  c-eigval        177       0.909     160.811    51.93
elaps:  c-buildHS       177       0.028       4.890     1.58
elaps:  cdiag           233       0.897     209.010    67.49
elaps:  cdiag1          233       0.058      13.410     4.33
elaps:  cdiag2          233       0.249      57.991    18.73
elaps:  cdiag3          233       0.526     122.489    39.55
elaps:  cdiag4          233       0.015       3.606     1.16
elaps:  c-eigvec         56       0.960      53.778    17.37
elaps:  c-buildD         56       0.882      49.388    15.95
elaps:  DHSCF4            1       7.732       7.732     2.50
elaps:  dfscf             1       7.249       7.249     2.34
elaps:  overfsm           1       0.053       0.053     0.02
elaps:  optical           1       0.000       0.000     0.00

>> End of run:   3-DEC-2015  21:53:38