>> Start of run:   8-DEC-2015  15:02:15

reinit: Reading from standard input
************************** Dump of input data file ****************************
#(1) General system descriptors
SystemName            GRP_doping    # Descriptive name of the system
SystemLabel           GRP_doping    # Short name for naming files
%include STRUCT.fdf
%include KPT.fdf
%include BASIS.fdf
#%include TS.fdf # for transiesta calculation
#(4) DFT, Grid, SCF
XC.functional         GGA           # LDA or GGA (default = LDA)
XC.authors            PBE           # CA (Ceperley-Aldr) = PZ
                                    #    (Perdew-Zunger) - LDA - Default
                                    # PW92 (Perdew-Wang-92) - LDA
                                    # PBE (Perdew-Burke-Ernzerhof) - GGA
MeshCutoff            200.000000    Ry      # Default: 50.0 Ry ~ 0.444 Bohr
                                    #         100.0 Ry ~ 0.314 Bohr
MaxSCFIterations      500           # Default: 50
DM.MixingWeight       0.05          # Default: 0.25
DM.NumberPulay        10            # Default: 0
DM.PulayOnFile        F             # SystemLabel.P1, SystemLabel.P2
DM.Tolerance          1.d-4         # Default: 1.d-4
DM.UseSaveDM          .true.        # because of the bug
SCFMustConverge       .true.
NeglNonOverlapInt     F             # Default: F
#(5) Eigenvalue problem: order-N or diagonalization
SolutionMethod        Diagon        # or Transiesta
ElectronicTemperature 300.0 K       # Default: 300.0 K
#(6) Molecular dynamics and relaxations
#MD.TypeOfRun          CG            # Type of dynamics:
#MD.VariableCell       F
#MD.NumCGsteps         0           # 0 for single-point / 100 for gopt
#MD.MaxCGDispl         0.2 Bohr      # Default: 0.2 Bohr
#MD.MaxForceTol        0.02 eV/Ang   # Default: 0.04 eV/Ang
#MD.MaxStressTol       1.0 GPa       # Default: 1.0 GPa
# Geometry Constraints
#%block GeometryConstraints
#	position from 1 to 44
#%endblock GeometryConstraints
BandLinesScale   pi/a
%block BandLines
 1   0.00000000  0.00000000  0.00000000
50   0.00000000  0.07809418  0.00000000
50   0.04509075  0.07809242  0.00000000
20   0.00000000  0.00000000  0.00000000
%endblock BandLines
************************** End of input data file *****************************

reinit: -----------------------------------------------------------------------
reinit: System Name: GRP_doping
reinit: -----------------------------------------------------------------------
reinit: System Label: GRP_doping
reinit: -----------------------------------------------------------------------

initatom: Reading input for the pseudopotentials and atomic orbitals ----------
 Species number:            1  Label: C Atomic number:           6
 Species number:            2  Label: B Atomic number:           5
Ground state valence configuration:   2s02  2p02
Reading pseudopotential information in formatted form from C.psf

Valence configuration for pseudopotential generation:
2s( 2.00) rc: 1.54
2p( 2.00) rc: 1.54
3d( 0.00) rc: 1.54
4f( 0.00) rc: 1.54
Ground state valence configuration:   2s02  2p01
Reading pseudopotential information in formatted form from B.psf

Valence configuration for pseudopotential generation:
2s( 2.00) rc: 1.74
2p( 1.00) rc: 1.74
3d( 0.00) rc: 1.74
4f( 0.00) rc: 1.74
For C, standard SIESTA heuristics set lmxkb to 3
 (one more than the basis l, including polarization orbitals).
Use PS.lmax or PS.KBprojectors blocks to override.
For B, standard SIESTA heuristics set lmxkb to 3
 (one more than the basis l, including polarization orbitals).
Use PS.lmax or PS.KBprojectors blocks to override.

<basis_specs>
C                    Z=   6    Mass=  12.010        Charge= 0.17977+309
Lmxo=1 Lmxkb= 3    BasisType=split      Semic=F
L=0  Nsemic=0  Cnfigmx=2
          n=1  nzeta=2  polorb=0
            splnorm:   0.15000
               vcte:    0.0000
               rinn:    0.0000
                rcs:    0.0000      0.0000
            lambdas:    1.0000      1.0000
L=1  Nsemic=0  Cnfigmx=2
          n=1  nzeta=2  polorb=1
            splnorm:   0.15000
               vcte:    0.0000
               rinn:    0.0000
                rcs:    0.0000      0.0000
            lambdas:    1.0000      1.0000
L=0  Nkbl=1  erefs: 0.17977+309
L=1  Nkbl=1  erefs: 0.17977+309
L=2  Nkbl=1  erefs: 0.17977+309
L=3  Nkbl=1  erefs: 0.17977+309
</basis_specs>

atom: Called for C                     (Z =   6)

read_vps: Pseudopotential generation method:
read_vps: ATM3      Troullier-Martins
Total valence charge:    4.00000

read_vps: Pseudopotential includes a core correction:
read_vps: Pseudo-core for xc-correction

xc_check: Exchange-correlation functional:
xc_check: GGA Perdew, Burke & Ernzerhof 1996
V l=0 = -2*Zval/r beyond r=  1.5227
V l=1 = -2*Zval/r beyond r=  1.5227
V l=2 = -2*Zval/r beyond r=  1.5227
V l=3 = -2*Zval/r beyond r=  1.5038
All V_l potentials equal beyond r=  1.5227
This should be close to max(r_c) in ps generation
All pots = -2*Zval/r beyond r=  1.5227

VLOCAL1: 99.0% of the norm of Vloc inside     18.722 Ry
VLOCAL1: 99.9% of the norm of Vloc inside     42.668 Ry
atom: Maximum radius for 4*pi*r*r*local-pseudopot. charge    1.83678
atom: Maximum radius for r*vlocal+2*Zval:    1.58088
GHOST: No ghost state for L =  0
GHOST: No ghost state for L =  1
GHOST: No ghost state for L =  2
GHOST: No ghost state for L =  3

KBgen: Kleinman-Bylander projectors:
   l= 0   rc=  1.704034   el= -1.009801   Ekb=  5.335044   kbcos=  0.316824
   l= 1   rc=  1.704034   el= -0.388707   Ekb= -3.785862   kbcos= -0.366464
   l= 2   rc=  1.791422   el=  0.001971   Ekb= -0.970471   kbcos= -0.009212
   l= 3   rc=  1.859892   el=  0.003065   Ekb= -0.399525   kbcos= -0.001223

KBgen: Total number of  Kleinman-Bylander projectors:   16
atom: -------------------------------------------------------------------------

atom: SANKEY-TYPE ORBITALS:
atom: Selected multiple-zeta basis: split

SPLIT: Orbitals with angular momentum L= 0

SPLIT: Basis orbitals for state 2s

SPLIT: PAO cut-off radius determined from an
SPLIT: energy shift=  0.007350 Ry

   izeta = 1
                 lambda =    1.000000
                     rc =    4.632753
                 energy =   -1.002270
                kinetic =    0.855760
    potential(screened) =   -1.858031
       potential(ionic) =   -5.417575

   izeta = 2
                 rmatch =    3.431921
              splitnorm =    0.150000
                 energy =   -0.867111
                kinetic =    1.300804
    potential(screened) =   -2.167915
       potential(ionic) =   -5.962684

[...]

SPLIT: Basis orbitals for state 2p

[...]

POLgen: Perturbative polarization orbital with L=  2

POLgen: Polarization orbital for state 2p

   izeta = 1
                     rc =    5.658549
                 energy =    1.109913
                kinetic =    2.304789
    potential(screened) =   -1.194876
       potential(ionic) =   -4.013592
atom: Total number of Sankey-type orbitals: 13

atm_pop: Valence configuration (for local Pseudopot. screening):
 2s( 2.00)
 2p( 2.00)
Vna: chval, zval:    4.00000   4.00000

Vna:  Cut-off radius for the neutral-atom potential:   5.658549
comcore: Pseudo-core radius Rcore=  1.791422

atom: _________________________________________________________________________

<basis_specs>
B                    Z=   5    Mass=  10.810        Charge= 0.17977+309
Lmxo=1 Lmxkb= 3    BasisType=split      Semic=F
L=0  Nsemic=0  Cnfigmx=2
          n=1  nzeta=2  polorb=0
            splnorm:   0.15000
               vcte:    0.0000
               rinn:    0.0000
                rcs:    0.0000      0.0000
            lambdas:    1.0000      1.0000
L=1  Nsemic=0  Cnfigmx=2
          n=1  nzeta=2  polorb=1
            splnorm:   0.15000
               vcte:    0.0000
               rinn:    0.0000
                rcs:    0.0000      0.0000
            lambdas:    1.0000      1.0000
L=0  Nkbl=1  erefs: 0.17977+309
L=1  Nkbl=1  erefs: 0.17977+309
L=2  Nkbl=1  erefs: 0.17977+309
L=3  Nkbl=1  erefs: 0.17977+309
</basis_specs>

atom: Called for B                     (Z =   5)

read_vps: Pseudopotential generation method:
read_vps: ATM3      Troullier-Martins
Total valence charge:    3.00000

read_vps: Pseudopotential includes a core correction:
read_vps: Pseudo-core for xc-correction

xc_check: Exchange-correlation functional:
xc_check: GGA Perdew, Burke & Ernzerhof 1996
V l=0 = -2*Zval/r beyond r=  1.7165
V l=1 = -2*Zval/r beyond r=  1.7165
V l=2 = -2*Zval/r beyond r=  1.7165
V l=3 = -2*Zval/r beyond r=  1.6951
All V_l potentials equal beyond r=  1.7165
This should be close to max(r_c) in ps generation
All pots = -2*Zval/r beyond r=  1.7165

VLOCAL1: 99.0% of the norm of Vloc inside     14.733 Ry
VLOCAL1: 99.9% of the norm of Vloc inside     33.577 Ry
atom: Maximum radius for 4*pi*r*r*local-pseudopot. charge    2.04484
atom: Maximum radius for r*vlocal+2*Zval:    1.75994
GHOST: No ghost state for L =  0
GHOST: No ghost state for L =  1
GHOST: No ghost state for L =  2
GHOST: No ghost state for L =  3

KBgen: Kleinman-Bylander projectors:
   l= 0   rc=  1.897051   el= -0.693730   Ekb=  4.595746   kbcos=  0.286105
   l= 1   rc=  1.920920   el= -0.265236   Ekb= -2.350715   kbcos= -0.315747
   l= 2   rc=  2.044840   el=  0.002055   Ekb= -0.690767   kbcos= -0.013822
   l= 3   rc=  2.149707   el=  0.003188   Ekb= -0.315358   kbcos= -0.002055

KBgen: Total number of  Kleinman-Bylander projectors:   16
atom: -------------------------------------------------------------------------

atom: SANKEY-TYPE ORBITALS:
atom: Selected multiple-zeta basis: split

[...]

SPLIT: Basis orbitals for state 2s

[...]

SPLIT: Orbitals with angular momentum L= 1

SPLIT: Basis orbitals for state 2p

SPLIT: PAO cut-off radius determined from an
SPLIT: energy shift=  0.007350 Ry

   izeta = 1
                 lambda =    1.000000
                     rc =    6.790259
                 energy =   -0.258578
                kinetic =    1.481412
    potential(screened) =   -1.739989
       potential(ionic) =   -3.657461

   izeta = 2
                 rmatch =    4.608740
              splitnorm =    0.150000
                 energy =   -0.173757
                kinetic =    2.186690
    potential(screened) =   -2.360447
       potential(ionic) =   -4.464260

POLgen: Perturbative polarization orbital with L=  2

POLgen: Polarization orbital for state 2p

   izeta = 1
                     rc =    6.790259
                 energy =    0.684082
                kinetic =    1.471481
    potential(screened) =   -0.787399
       potential(ionic) =   -2.406985
atom: Total number of Sankey-type orbitals: 13

atm_pop: Valence configuration (for local Pseudopot. screening):
 2s( 2.00)
 2p( 1.00)
Vna: chval, zval:    3.00000   3.00000

Vna:  Cut-off radius for the neutral-atom potential:   6.790259
comcore: Pseudo-core radius Rcore=  2.122997

atom: _________________________________________________________________________

prinput: Basis input ----------------------------------------------------------

PAO.BasisType split

%block ChemicalSpeciesLabel
    1    6 C                       # Species index, atomic number, species label
[...]
siesta:     34.83104  14.76308   0.00000  1        8
siesta:     30.17465   9.38661   0.00000  1        9
siesta:     32.50278  10.73026   0.00000  1       10
siesta:     27.84639   5.35379   0.00000  1       11
siesta:     30.17453   6.69743   0.00000  1       12
siesta:     27.84714  21.48508   0.00000  1       13
siesta:     30.17527  22.82873   0.00000  1       14
siesta:      6.89168   1.32097   0.00000  1       15
siesta:      9.21981   2.66461   0.00000  1       16
siesta:     11.54782   1.32097   0.00000  1       17
siesta:     13.87595   2.66461   0.00000  1       18
siesta:     16.20396   1.32097   0.00000  1       19
siesta:     18.53210   2.66461   0.00000  1       20
siesta:     20.86199   1.32097   0.00000  1       21
siesta:     23.19013   2.66461   0.00000  1       22
siesta:     25.51813   1.32097   0.00000  1       23
siesta:     27.84627   2.66461   0.00000  1       24
siesta:      4.56380   5.35379   0.00000  1       25
siesta:      6.89193   6.69743   0.00000  1       26
siesta:      9.21994   5.35379   0.00000  1       27
siesta:     11.54807   6.69743   0.00000  1       28
siesta:     13.87608   5.35379   0.00000  1       29
siesta:     16.20421   6.69743   0.00000  1       30
siesta:     18.53411   5.35379   0.00000  1       31
siesta:     20.86224   6.69743   0.00000  1       32
siesta:     25.51838   6.69743   0.00000  1       33
siesta:      6.89205   9.38661   0.00000  1       34
siesta:      9.22019  10.73026   0.00000  1       35
siesta:     11.54820   9.38661   0.00000  1       36
siesta:     13.87633  10.73026   0.00000  1       37
siesta:     16.20434   9.38661   0.00000  1       38
siesta:     20.86237   9.38661   0.00000  1       39
siesta:     23.19050  10.73026   0.00000  1       40
siesta:      9.22031  13.41944   0.00000  1       41
siesta:     11.54845  14.76308   0.00000  1       42
siesta:     13.87645  13.41944   0.00000  1       43
siesta:     16.20459  14.76308   0.00000  1       44
siesta:     18.53448  13.41944   0.00000  1       45
siesta:     20.86262  14.76308   0.00000  1       46
siesta:     11.54857  17.45226   0.00000  1       47
siesta:     13.87670  18.79590   0.00000  1       48
siesta:     16.20471  17.45226   0.00000  1       49
siesta:     18.53284  18.79590   0.00000  1       50
siesta:     13.87683  21.48508   0.00000  1       51
siesta:     16.20496  22.82873   0.00000  1       52
siesta:     18.53486  21.48508   0.00000  1       53
siesta:     20.86299  22.82873   0.00000  1       54
siesta:     25.51851   9.38661   0.00000  1       55
siesta:     23.19063  13.41944   0.00000  1       56
siesta:     25.51876  14.76308   0.00000  1       57
siesta:     23.19088  18.79590   0.00000  1       58
siesta:     27.84677  13.41944   0.00000  1       59
siesta:     30.17490  14.76308   0.00000  1       60
siesta:     25.51888  17.45226   0.00000  1       61
siesta:     27.84702  18.79590   0.00000  1       62
siesta:     23.19100  21.48508   0.00000  1       63
siesta:     25.51913  22.82873   0.00000  1       64
siesta:     32.50316  18.79590   0.00000  1       65
siesta:     37.16131  21.48508   0.00000  1       66
siesta:     39.48945  22.82873   0.00000  1       67
siesta:     23.19025   5.35379   0.00000  2       68
siesta:     18.53247  10.73026   0.00000  2       69
siesta:     27.84664  10.73026   0.00000  2       70
siesta:     20.86274  17.45226   0.00000  2       71
siesta:     30.17503  17.45226   0.00000  2       72

siesta: System type = slab

initatomlists: Number of atoms, orbitals, and projectors:     72   936  1152

siesta: ******************** Simulation parameters ****************************
siesta:
siesta: The following are some of the parameters of the simulation.
siesta: A complete list of the parameters used, including default values,
siesta: can be found in file out.fdf
siesta:
redata: Non-Collinear-spin run           =     F
redata: SpinPolarized (Up/Down) run      =     F
redata: Number of spin components        =     1
redata: Long output                      =     F
redata: Number of Atomic Species         =        2
redata: Charge density info will appear in .RHO file
redata: Write Mulliken Pop.              =     NO
redata: Mesh Cutoff                      =   200.0000  Ry
redata: Net charge of the system         =     0.0000 |e|
redata: Max. number of SCF Iter          =      500
redata: SCF convergence failure will abort job
redata: Performing Pulay mixing using    =    10 iterations
redata: Mix DM in first SCF step ?       =     F
redata: Write Pulay info on disk?        =     F
redata: Discard 1st Pulay DM after  kick =     F
redata: New DM Mixing Weight             =     0.0500
redata: New DM Occupancy tolerance       = 0.000000000001
redata: No kicks to SCF
redata: DM Mixing Weight for Kicks       =     0.5000
redata: DM Tolerance for SCF             =     0.000100
redata: Require Energy convergence for SCF =     F
redata: DM Energy tolerance for SCF      =     0.000100 eV
redata: Require Harris convergence for SCF =     F
redata: DM Harris energy tolerance for SCF =     0.000100 eV
redata: Using Saved Data (generic)   =     F
redata: Use continuation files for DM    =     T
redata: Neglect nonoverlap interactions  =     F
redata: Method of Calculation            =     Diagonalization
redata: Divide and Conquer               =     T
redata: Electronic Temperature           =     0.0019  Ry
redata: Fix the spin of the system       =     F
redata: Dynamics option                  =     Verlet MD run
redata: Initial MD time step             =        1
redata:   Final MD time step             =        1
redata: Length of MD time step           =     1.0000  fs
redata: Initial Temperature of MD run    =     0.0000  K
redata: Perform a MD quench              =     F
redata: ***********************************************************************
Total number of electrons:   283.000000
Total ionic charge:   283.000000

* ProcessorY, Blocksize:    2  24

k-point displ. along   1 input, could be:     0.00    0.50
k-point displ. along   2 input, could be:     0.00    0.50
 Kpoints in:          364 . Kpoints trimmed:          352

siesta: k-grid: Number of k-points =   352
siesta: k-grid: Cutoff (effective) =     5.000 Ang
siesta: k-grid: Supercell and displacements
siesta: k-grid:   26   0   0      0.000
siesta: k-grid:    0  26   0      0.000
siesta: k-grid:    0   0   1      0.000
Naive supercell factors:     2    2    2

superc: Internal auxiliary supercell:     2 x     2 x     2  =       8
superc: Number of atoms, orbitals, and projectors:    576   7488   9216

siesta:                 ==============================
                            Begin MD step =      1

superc: Internal auxiliary supercell:     2 x     2 x     2  =       8
superc: Number of atoms, orbitals, and projectors:    576   7488   9216

outcell: Unit cell vectors (Ang):
       14.785000    0.000000    0.000000
        7.393000   12.805052    0.000000
        0.000000    0.000000   10.000000

outcell: Cell vector modules (Ang)   :   14.785000   14.786000   10.000000
outcell: Cell angles (23,13,12) (deg):     90.0000     90.0000     60.0000
outcell: Cell volume (Ang**3)        :   1893.2269
New_DM. Step:     1
Initializing Density Matrix...

iodm: Reading Density Matrix from files

InitMesh: MESH =   120 x   120 x    90 =     1296000
InitMesh: Mesh cutoff (required, used) =   200.000   223.865 Ry

stepf: Fermi-Dirac step function

siesta: Program's energy decomposition (eV):
siesta: Ebs     =     -3802.337658
siesta: Eions   =     17762.727515
siesta: Ena     =      3861.411440
siesta: Ekin    =      7594.528466
siesta: Enl     =      -736.427417
siesta: DEna    =      -316.701467
siesta: DUscf   =        31.330413
siesta: DUext   =         0.000000
siesta: Exc     =     -4058.082158
siesta: eta*DQ  =         0.000000
siesta: Emadel  =         0.000000
siesta: Emeta   =         0.000000
siesta: Emolmec =         0.000000
siesta: Ekinion =         0.000000
siesta: Eharris =    -11386.665259
siesta: Etot    =    -11386.668237
siesta: FreeEng =    -11386.668237

siesta: E_KS(eV) =           -11386.6652

siesta: E_KS - E_eggbox =    -11386.6652

siesta: Atomic forces (eV/Ang):
   Tot    0.190383   -0.233222    0.000000
   Max    3.632892
   Res    0.938851    sqrt( Sum f_i^2 / 3N )
   Max    3.632892    constrained

Stress-tensor-Voigt (kbar):      -82.31      -80.36       -0.14        0.18        0.00        0.00
(Free)E + p*V (eV/cell)   -11322.5520
Target enthalpy (eV/cell)   -11386.6800

siesta: Stress tensor (static) (eV/Ang**3):
        -0.051373    0.000114    0.000000
         0.000114   -0.050157    0.000000
         0.000000    0.000000   -0.000087

siesta: Pressure (static):         54.27007519  kBar

siesta: Stress tensor (total) (eV/Ang**3):
        -0.051373    0.000114    0.000000
         0.000114   -0.050157    0.000000
         0.000000    0.000000   -0.000087

siesta: Pressure (total):         54.27007519  kBar

siesta: Temp_ion =       0.000 K

Computing bands...

siesta: Program's energy decomposition (eV):
siesta: Ebs     =     -3802.337658
siesta: Eions   =     17762.727515
siesta: Ena     =      3861.411440
siesta: Ekin    =      7594.528963
siesta: Enl     =      -736.426571
siesta: DEna    =      -316.704066
siesta: DUscf   =        31.334584
siesta: DUext   =         0.000000
siesta: Exc     =     -4058.082086
siesta: eta*DQ  =         0.000000
siesta: Emadel  =         0.000000
siesta: Emeta   =         0.000000
siesta: Emolmec =         0.000000
siesta: Ekinion =         0.000000
siesta: Eharris =    -11386.665259
siesta: Etot    =    -11386.665250
siesta: FreeEng =    -11386.680042

siesta: Final energy (eV):
siesta:  Band Struct. =   -3802.337658
siesta:       Kinetic =    7594.528963
siesta:       Hartree =   22322.897055
siesta:    Ext. field =       0.000000
siesta:   Exch.-corr. =   -4058.082086
siesta:  Ion-electron =  -51601.868383
siesta:       Ion-ion =   14355.859201
siesta:       Ekinion =       0.000000
siesta:         Total =  -11386.665250

siesta: Atomic forces (eV/Ang):
siesta:      1   -0.252300    0.027402    0.000000
siesta:      2    0.089891    0.150049    0.000000
siesta:      3    0.627701   -0.463139    0.000000
siesta:      4   -0.145497    0.230572    0.000000
siesta:      5    0.006800    0.799141    0.000000
siesta:      6    0.136139   -0.230153    0.000000
siesta:      7   -0.231636   -0.072054    0.000000
siesta:      8    0.064347   -0.438928    0.000000
siesta:      9    3.211281   -1.856342    0.000000
siesta:     10    0.109576   -0.766042    0.000000
siesta:     11    0.019197    0.170293    0.000000
siesta:     12    0.677828    0.266576    0.000000
siesta:     13   -0.506598   -0.332231    0.000000
siesta:     14   -0.116968    0.399578    0.000000
siesta:     15   -0.088016   -0.373758    0.000000
siesta:     16    0.125792    0.175393    0.000000
siesta:     17    0.089038    0.037666    0.000000
siesta:     18   -0.324844    0.160974    0.000000
siesta:     19    0.256092   -0.310568    0.000000
siesta:     20   -0.299249    0.317105    0.000000
siesta:     21    0.778437   -0.475214    0.000000
siesta:     22   -0.034575   -3.632892    0.000000
siesta:     23   -0.737476   -0.521645    0.000000
siesta:     24    0.430646    0.277039    0.000000
siesta:     25   -0.005516   -0.267756    0.000000
siesta:     26   -0.019743    0.043827    0.000000
siesta:     27    0.051861   -0.124490    0.000000
siesta:     28    0.021848   -0.044573    0.000000
siesta:     29   -0.040985   -0.233241    0.000000
siesta:     30   -0.696337    0.303182    0.000000
siesta:     31    0.009811    0.115915    0.000000
siesta:     32   -2.547686    2.082686    0.000000
siesta:     33    2.533154    2.138025    0.000000
siesta:     34    0.145329    0.059887    0.000000
siesta:     35   -0.000237   -0.228790    0.000000
siesta:     36   -0.114787    0.177531    0.000000
siesta:     37    0.045291   -0.838098    0.000000
siesta:     38   -3.231937   -1.936225    0.000000
siesta:     39    2.425270   -1.943125    0.000000
siesta:     40    0.145449   -1.197419    0.000000
siesta:     41   -0.186952    0.166584    0.000000
siesta:     42    0.188265   -0.179839    0.000000
siesta:     43   -0.077574    0.430444    0.000000
siesta:     44    0.362510    0.078408    0.000000
siesta:     45    0.241938    3.306256    0.000000
siesta:     46   -0.513771   -3.195188    0.000000
siesta:     47   -0.041105    0.214678    0.000000
siesta:     48   -0.073816   -0.068519    0.000000
siesta:     49   -0.125957    0.741920    0.000000
siesta:     50   -3.066883    1.727354    0.000000
siesta:     51    0.013503   -0.125538    0.000000
siesta:     52    0.157880    0.172261    0.000000
siesta:     53   -0.663604   -0.355532    0.000000
siesta:     54    0.038939    0.447867    0.000000
siesta:     55   -2.363344   -2.148815    0.000000
siesta:     56   -0.211274   -0.148520    0.000000
siesta:     57    0.376515   -0.205168    0.000000
siesta:     58    2.979709    1.833377    0.000000
siesta:     59    0.391114    3.424363    0.000000
siesta:     60   -0.387473   -3.149181    0.000000
siesta:     61   -0.053200    1.548785    0.000000
siesta:     62   -3.078612    1.641871    0.000000
siesta:     63    0.611298   -0.313753    0.000000
siesta:     64   -0.050843    0.335896    0.000000
siesta:     65    3.084427    1.846778    0.000000
siesta:     66   -0.061911    0.086178    0.000000
siesta:     67    0.097447    0.096720    0.000000
siesta:     68    0.025985   -0.252793    0.000000
siesta:     69   -0.028438    0.062514    0.000000
siesta:     70   -0.193495   -0.075929    0.000000
siesta:     71   -0.006418    0.127331    0.000000
siesta:     72    0.199136    0.049808    0.000000
siesta: ----------------------------------------
siesta:    Tot    0.190383   -0.233222    0.000000

siesta: Stress tensor (static) (eV/Ang**3):
siesta:    -0.051373    0.000114    0.000000
siesta:     0.000114   -0.050157    0.000000
siesta:     0.000000    0.000000   -0.000087

siesta: Cell volume =       1893.226895 Ang**3

siesta: Pressure (static):
siesta:                Solid            Molecule  Units
siesta:           0.00036891          0.00017087  Ry/Bohr**3
siesta:           0.03387235          0.01568885  eV/Ang**3
siesta:          54.27007519         25.13658621  kBar
(Free)E+ p_basis*V_orbitals  =      -11354.362656
(Free)Eharris+ p_basis*V_orbitals  =      -11354.359677

siesta: Electric dipole (a.u.)  =    0.000000    0.000000    0.000000
siesta: Electric dipole (Debye) =    0.000000    0.000000    0.000000

elaps:  Routine       Calls   Time/call    Tot.time        %
elaps:  siesta            1     963.611     963.611   100.00
elaps:  Setup             1       0.496       0.496     0.05
elaps:  bands             3      33.922     101.766    10.56
elaps:  writewave         1       0.005       0.005     0.00
elaps:  KSV_init          1       0.001       0.001     0.00
elaps:  IterMD            1     860.365     860.365    89.29
elaps:  hsparse           1       0.049       0.049     0.01
elaps:  overlap           1       0.526       0.526     0.05
elaps:  IterSCF           1     837.356     837.356    86.90
elaps:  kinefsm           2       0.276       0.552     0.06
elaps:  nlefsm            2       2.420       4.840     0.50
elaps:  DHSCF             2      18.614      37.227     3.86
elaps:  DHSCF1            1       0.124       0.124     0.01
elaps:  DHSCF2            1       5.180       5.180     0.54
elaps:  REORD            18       0.001       0.024     0.00
elaps:  POISON            3       0.285       0.855     0.09
elaps:  DHSCF3            2      12.041      24.081     2.50
elaps:  rhoofd            2       4.019       8.038     0.83
elaps:  cellXC            2       0.441       0.883     0.09
elaps:  vmat              2       6.187      12.374     1.28
elaps:  MolMec            2       0.000       0.000     0.00
elaps:  diagon            1     815.063     815.063    84.58
elaps:  c-eigval        473       0.842     398.184    41.32
elaps:  c-buildHS       473       0.016       7.753     0.80
elaps:  cdiag           825       0.848     699.456    72.59
elaps:  cdiag1          825       0.053      43.543     4.52
elaps:  cdiag2          825       0.240     197.846    20.53
elaps:  cdiag3          825       0.498     410.658    42.62
elaps:  cdiag4          825       0.023      19.149     1.99
elaps:  c-eigvec        352       0.889     312.940    32.48
elaps:  c-buildD        352       0.583     205.219    21.30
elaps:  DHSCF4            1       7.820       7.820     0.81
elaps:  dfscf             1       7.345       7.345     0.76
elaps:  overfsm           1       0.051       0.051     0.01
elaps:  optical           1       0.001       0.001     0.00

>> End of run:   8-DEC-2015  15:18:19