>> Start of run:  30-NOV-2015  20:42:16

reinit: Reading from standard input
************************** Dump of input data file ****************************
#(1) General system descriptors
SystemName            GRP_doping    # Descriptive name of the system
SystemLabel           GRP_doping    # Short name for naming files
%include STRUCT.fdf
%include KPT.fdf
%include BASIS.fdf
#%include TS.fdf # for transiesta calculation
#(4) DFT, Grid, SCF
XC.functional         GGA           # LDA or GGA (default = LDA)
XC.authors            PBE           # CA (Ceperley-Aldr) = PZ
                                    #    (Perdew-Zunger) - LDA - Default
                                    # PW92 (Perdew-Wang-92) - LDA
                                    # PBE (Perdew-Burke-Ernzerhof) - GGA
MeshCutoff            200.000000    Ry      # Default: 50.0 Ry ~ 0.444 Bohr
                                    #         100.0 Ry ~ 0.314 Bohr
MaxSCFIterations      500           # Default: 50
DM.MixingWeight       0.05          # Default: 0.25
DM.NumberPulay        10            # Default: 0
DM.PulayOnFile        F             # SystemLabel.P1, SystemLabel.P2
DM.Tolerance          1.d-4         # Default: 1.d-4
DM.UseSaveDM          .true.        # because of the bug
SCFMustConverge       .true.
NeglNonOverlapInt     F             # Default: F
#(5) Eigenvalue problem: order-N or diagonalization
SolutionMethod        Diagon        # or Transiesta
ElectronicTemperature 300.0 K       # Default: 300.0 K
#(6) Molecular dynamics and relaxations
#MD.TypeOfRun          CG            # Type of dynamics:
#MD.VariableCell       F
#MD.NumCGsteps         0           # 0 for single-point / 100 for gopt
#MD.MaxCGDispl         0.2 Bohr      # Default: 0.2 Bohr
#MD.MaxForceTol        0.02 eV/Ang   # Default: 0.04 eV/Ang
#MD.MaxStressTol       1.0 GPa       # Default: 1.0 GPa
# Geometry Constraints
#%block GeometryConstraints
#	position from 1 to 44
#%endblock GeometryConstraints
************************** End of input data file *****************************

reinit: -----------------------------------------------------------------------
reinit: System Name: GRP_doping
reinit: -----------------------------------------------------------------------
reinit: System Label: GRP_doping
reinit: -----------------------------------------------------------------------

initatom: Reading input for the pseudopotentials and atomic orbitals ----------
 Species number:            1  Label: C Atomic number:           6
 Species number:            2  Label: B Atomic number:           5
Ground state valence configuration:   2s02  2p02
Reading pseudopotential information in formatted form from C.psf

Valence configuration for pseudopotential generation:
2s( 2.00) rc: 1.54
2p( 2.00) rc: 1.54
3d( 0.00) rc: 1.54
4f( 0.00) rc: 1.54
Ground state valence configuration:   2s02  2p01
Reading pseudopotential information in formatted form from B.psf

Valence configuration for pseudopotential generation:
2s( 2.00) rc: 1.74
2p( 1.00) rc: 1.74
3d( 0.00) rc: 1.74
4f( 0.00) rc: 1.74
For C, standard SIESTA heuristics set lmxkb to 3
 (one more than the basis l, including polarization orbitals).
Use PS.lmax or PS.KBprojectors blocks to override.
For B, standard SIESTA heuristics set lmxkb to 3
 (one more than the basis l, including polarization orbitals).
Use PS.lmax or PS.KBprojectors blocks to override.

<basis_specs>
C                    Z=   6    Mass=  12.010        Charge= 0.17977+309
Lmxo=1 Lmxkb= 3    BasisType=split      Semic=F
L=0  Nsemic=0  Cnfigmx=2
          n=1  nzeta=2  polorb=0
            splnorm:   0.15000
               vcte:    0.0000
               rinn:    0.0000
                rcs:    0.0000      0.0000
            lambdas:    1.0000      1.0000
L=1  Nsemic=0  Cnfigmx=2
          n=1  nzeta=2  polorb=1
            splnorm:   0.15000
               vcte:    0.0000
               rinn:    0.0000
                rcs:    0.0000      0.0000
            lambdas:    1.0000      1.0000
L=0  Nkbl=1  erefs: 0.17977+309
L=1  Nkbl=1  erefs: 0.17977+309
L=2  Nkbl=1  erefs: 0.17977+309
L=3  Nkbl=1  erefs: 0.17977+309
</basis_specs>

atom: Called for C                     (Z =   6)

read_vps: Pseudopotential generation method:
read_vps: ATM3      Troullier-Martins
Total valence charge:    4.00000

read_vps: Pseudopotential includes a core correction:
read_vps: Pseudo-core for xc-correction

xc_check: Exchange-correlation functional:
xc_check: GGA Perdew, Burke & Ernzerhof 1996
V l=0 = -2*Zval/r beyond r=  1.5227
V l=1 = -2*Zval/r beyond r=  1.5227
V l=2 = -2*Zval/r beyond r=  1.5227
V l=3 = -2*Zval/r beyond r=  1.5038
All V_l potentials equal beyond r=  1.5227
This should be close to max(r_c) in ps generation
All pots = -2*Zval/r beyond r=  1.5227

VLOCAL1: 99.0% of the norm of Vloc inside     18.722 Ry
VLOCAL1: 99.9% of the norm of Vloc inside     42.668 Ry
atom: Maximum radius for 4*pi*r*r*local-pseudopot. charge    1.83678
atom: Maximum radius for r*vlocal+2*Zval:    1.58088
GHOST: No ghost state for L =  0
GHOST: No ghost state for L =  1
GHOST: No ghost state for L =  2
GHOST: No ghost state for L =  3

KBgen: Kleinman-Bylander projectors:
   l= 0   rc=  1.704034   el= -1.009801   Ekb=  5.335044   kbcos=  0.316824
   l= 1   rc=  1.704034   el= -0.388707   Ekb= -3.785862   kbcos= -0.366464
   l= 2   rc=  1.791422   el=  0.001971   Ekb= -0.970471   kbcos= -0.009212
   l= 3   rc=  1.859892   el=  0.003065   Ekb= -0.399525   kbcos= -0.001223

KBgen: Total number of  Kleinman-Bylander projectors:   16
atom: -------------------------------------------------------------------------

atom: SANKEY-TYPE ORBITALS:
atom: Selected multiple-zeta basis: split

SPLIT: Orbitals with angular momentum L= 0

SPLIT: Basis orbitals for state 2s

SPLIT: PAO cut-off radius determined from an
SPLIT: energy shift=  0.007350 Ry

   izeta = 1
                 lambda =    1.000000
                     rc =    4.632753
                 energy =   -1.002270
                kinetic =    0.855760
    potential(screened) =   -1.858031
       potential(ionic) =   -5.417575

   izeta = 2
                 rmatch =    3.431921
              splitnorm =    0.150000
                 energy =   -0.867111
                kinetic =    1.300804
    potential(screened) =   -2.167915
       potential(ionic) =   -5.962684

[...]

SPLIT: Basis orbitals for state 2p

[...]

POLgen: Perturbative polarization orbital with L=  2

POLgen: Polarization orbital for state 2p

   izeta = 1
                     rc =    5.658549
                 energy =    1.109913
                kinetic =    2.304789
    potential(screened) =   -1.194876
       potential(ionic) =   -4.013592
atom: Total number of Sankey-type orbitals: 13

atm_pop: Valence configuration (for local Pseudopot. screening):
 2s( 2.00)
 2p( 2.00)
Vna: chval, zval:    4.00000   4.00000

Vna:  Cut-off radius for the neutral-atom potential:   5.658549
comcore: Pseudo-core radius Rcore=  1.791422

atom: _________________________________________________________________________

<basis_specs>
B                    Z=   5    Mass=  10.810        Charge= 0.17977+309
Lmxo=1 Lmxkb= 3    BasisType=split      Semic=F
L=0  Nsemic=0  Cnfigmx=2
          n=1  nzeta=2  polorb=0
            splnorm:   0.15000
               vcte:    0.0000
               rinn:    0.0000
                rcs:    0.0000      0.0000
            lambdas:    1.0000      1.0000
L=1  Nsemic=0  Cnfigmx=2
          n=1  nzeta=2  polorb=1
            splnorm:   0.15000
               vcte:    0.0000
               rinn:    0.0000
                rcs:    0.0000      0.0000
            lambdas:    1.0000      1.0000
L=0  Nkbl=1  erefs: 0.17977+309
L=1  Nkbl=1  erefs: 0.17977+309
L=2  Nkbl=1  erefs: 0.17977+309
L=3  Nkbl=1  erefs: 0.17977+309
</basis_specs>

atom: Called for B                     (Z =   5)

read_vps: Pseudopotential generation method:
read_vps: ATM3      Troullier-Martins
Total valence charge:    3.00000

read_vps: Pseudopotential includes a core correction:
read_vps: Pseudo-core for xc-correction

xc_check: Exchange-correlation functional:
xc_check: GGA Perdew, Burke & Ernzerhof 1996
V l=0 = -2*Zval/r beyond r=  1.7165
V l=1 = -2*Zval/r beyond r=  1.7165
V l=2 = -2*Zval/r beyond r=  1.7165
V l=3 = -2*Zval/r beyond r=  1.6951
All V_l potentials equal beyond r=  1.7165
This should be close to max(r_c) in ps generation
All pots = -2*Zval/r beyond r=  1.7165

VLOCAL1: 99.0% of the norm of Vloc inside     14.733 Ry
VLOCAL1: 99.9% of the norm of Vloc inside     33.577 Ry
atom: Maximum radius for 4*pi*r*r*local-pseudopot. charge    2.04484
atom: Maximum radius for r*vlocal+2*Zval:    1.75994
GHOST: No ghost state for L =  0
GHOST: No ghost state for L =  1
GHOST: No ghost state for L =  2
GHOST: No ghost state for L =  3

KBgen: Kleinman-Bylander projectors:
   l= 0   rc=  1.897051   el= -0.693730   Ekb=  4.595746   kbcos=  0.286105
   l= 1   rc=  1.920920   el= -0.265236   Ekb= -2.350715   kbcos= -0.315747
   l= 2   rc=  2.044840   el=  0.002055   Ekb= -0.690767   kbcos= -0.013822
   l= 3   rc=  2.149707   el=  0.003188   Ekb= -0.315358   kbcos= -0.002055

KBgen: Total number of  Kleinman-Bylander projectors:   16
atom: -------------------------------------------------------------------------

atom: SANKEY-TYPE ORBITALS:
atom: Selected multiple-zeta basis: split

[...]

SPLIT: Basis orbitals for state 2s

[...]

SPLIT: Orbitals with angular momentum L= 1

SPLIT: Basis orbitals for state 2p

SPLIT: PAO cut-off radius determined from an
SPLIT: energy shift=  0.007350 Ry

   izeta = 1
                 lambda =    1.000000
                     rc =    6.790259
                 energy =   -0.258578
                kinetic =    1.481412
    potential(screened) =   -1.739989
       potential(ionic) =   -3.657461

   izeta = 2
                 rmatch =    4.608740
              splitnorm =    0.150000
                 energy =   -0.173757
                kinetic =    2.186690
    potential(screened) =   -2.360447
       potential(ionic) =   -4.464260

POLgen: Perturbative polarization orbital with L=  2

POLgen: Polarization orbital for state 2p

   izeta = 1
                     rc =    6.790259
                 energy =    0.684082
                kinetic =    1.471481
    potential(screened) =   -0.787399
       potential(ionic) =   -2.406985
atom: Total number of Sankey-type orbitals: 13

atm_pop: Valence configuration (for local Pseudopot. screening):
 2s( 2.00)
 2p( 1.00)
Vna: chval, zval:    3.00000   3.00000

Vna:  Cut-off radius for the neutral-atom potential:   6.790259
comcore: Pseudo-core radius Rcore=  2.122997

atom: _________________________________________________________________________

prinput: Basis input ----------------------------------------------------------

PAO.BasisType split

%block ChemicalSpeciesLabel
    1    6 C                       # Species index, atomic number, species label
    2    5 B                       # Species index, atomic number, species label
%endblock ChemicalSpeciesLabel

%block PAO.Basis                 # Define Basis set
C                     2                    # Species label, number of l-shells
[...]
siesta:     32.50291  13.41944   0.00000  1        7
siesta:     34.83104  14.76308   0.00000  1        8
siesta:     30.17465   9.38661   0.00000  1        9
siesta:     32.50278  10.73026   0.00000  1       10
siesta:     27.84639   5.35379   0.00000  1       11
siesta:     30.17453   6.69743   0.00000  1       12
siesta:     27.84714  21.48508   0.00000  1       13
siesta:     30.17527  22.82873   0.00000  1       14
siesta:      6.89168   1.32097   0.00000  1       15
siesta:      9.21981   2.66461   0.00000  1       16
siesta:     11.54782   1.32097   0.00000  1       17
siesta:     13.87595   2.66461   0.00000  1       18
siesta:     16.20396   1.32097   0.00000  1       19
siesta:     18.53210   2.66461   0.00000  1       20
siesta:     23.19013   2.66461   0.00000  1       21
siesta:     25.51813   1.32097   0.00000  1       22
siesta:     27.84627   2.66461   0.00000  1       23
siesta:      6.89193   6.69743   0.00000  1       24
siesta:      9.21994   5.35379   0.00000  1       25
siesta:     11.54807   6.69743   0.00000  1       26
siesta:     13.87608   5.35379   0.00000  1       27
siesta:     16.20421   6.69743   0.00000  1       28
siesta:     18.53411   5.35379   0.00000  1       29
siesta:     23.19025   5.35379   0.00000  1       30
siesta:     25.51838   6.69743   0.00000  1       31
siesta:      9.22019  10.73026   0.00000  1       32
siesta:     11.54820   9.38661   0.00000  1       33
siesta:     13.87633  10.73026   0.00000  1       34
siesta:     18.53247  10.73026   0.00000  1       35
siesta:     20.86237   9.38661   0.00000  1       36
siesta:     23.19050  10.73026   0.00000  1       37
siesta:      9.22031  13.41944   0.00000  1       38
siesta:     11.54845  14.76308   0.00000  1       39
siesta:     13.87645  13.41944   0.00000  1       40
siesta:     16.20459  14.76308   0.00000  1       41
siesta:     18.53448  13.41944   0.00000  1       42
siesta:     20.86262  14.76308   0.00000  1       43
siesta:     13.87670  18.79590   0.00000  1       44
siesta:     16.20471  17.45226   0.00000  1       45
siesta:     18.53284  18.79590   0.00000  1       46
siesta:     13.87683  21.48508   0.00000  1       47
siesta:     16.20496  22.82873   0.00000  1       48
siesta:     18.53486  21.48508   0.00000  1       49
siesta:     20.86299  22.82873   0.00000  1       50
siesta:     27.84664  10.73026   0.00000  1       51
siesta:     23.19063  13.41944   0.00000  1       52
siesta:     25.51876  14.76308   0.00000  1       53
siesta:     23.19088  18.79590   0.00000  1       54
siesta:     27.84677  13.41944   0.00000  1       55
siesta:     30.17490  14.76308   0.00000  1       56
siesta:     25.51888  17.45226   0.00000  1       57
siesta:     27.84702  18.79590   0.00000  1       58
siesta:     23.19100  21.48508   0.00000  1       59
siesta:     25.51913  22.82873   0.00000  1       60
siesta:     32.50316  18.79590   0.00000  1       61
siesta:     37.16131  21.48508   0.00000  1       62
siesta:     39.48945  22.82873   0.00000  1       63
siesta:     20.86199   1.32097   0.00000  2       64
siesta:      4.56380   5.35379   0.00000  2       65
siesta:     20.86224   6.69743   0.00000  2       66
siesta:      6.89205   9.38661   0.00000  2       67
siesta:     16.20434   9.38661   0.00000  2       68
siesta:     11.54857  17.45226   0.00000  2       69
siesta:     25.51851   9.38661   0.00000  2       70
siesta:     20.86274  17.45226   0.00000  2       71
siesta:     30.17503  17.45226   0.00000  2       72

siesta: System type = slab

initatomlists: Number of atoms, orbitals, and projectors:     72   936  1152

siesta: ******************** Simulation parameters ****************************
siesta:
siesta: The following are some of the parameters of the simulation.
siesta: A complete list of the parameters used, including default values,
siesta: can be found in file out.fdf
siesta:
redata: Non-Collinear-spin run           =     F
redata: SpinPolarized (Up/Down) run      =     F
redata: Number of spin components        =     1
redata: Long output                      =     F
redata: Number of Atomic Species         =        2
redata: Charge density info will appear in .RHO file
redata: Write Mulliken Pop.              =     NO
redata: Mesh Cutoff                      =   200.0000  Ry
redata: Net charge of the system         =     0.0000 |e|
redata: Max. number of SCF Iter          =      500
redata: SCF convergence failure will abort job
redata: Performing Pulay mixing using    =    10 iterations
redata: Mix DM in first SCF step ?       =     F
redata: Write Pulay info on disk?        =     F
redata: Discard 1st Pulay DM after  kick =     F
redata: New DM Mixing Weight             =     0.0500
redata: New DM Occupancy tolerance       = 0.000000000001
redata: No kicks to SCF
redata: DM Mixing Weight for Kicks       =     0.5000
redata: DM Tolerance for SCF             =     0.000100
redata: Require Energy convergence for SCF =     F
redata: DM Energy tolerance for SCF      =     0.000100 eV
redata: Require Harris convergence for SCF =     F
redata: DM Harris energy tolerance for SCF =     0.000100 eV
redata: Using Saved Data (generic)   =     F
redata: Use continuation files for DM    =     T
redata: Neglect nonoverlap interactions  =     F
redata: Method of Calculation            =     Diagonalization
redata: Divide and Conquer               =     T
redata: Electronic Temperature           =     0.0019  Ry
redata: Fix the spin of the system       =     F
redata: Dynamics option                  =     Verlet MD run
redata: Initial MD time step             =        1
redata:   Final MD time step             =        1
redata: Length of MD time step           =     1.0000  fs
redata: Initial Temperature of MD run    =     0.0000  K
redata: Perform a MD quench              =     F
redata: ***********************************************************************
Total number of electrons:   279.000000
Total ionic charge:   279.000000

* ProcessorY, Blocksize:    2  24

k-point displ. along   1 input, could be:     0.00    0.50
k-point displ. along   2 input, could be:     0.00    0.50
 Kpoints in:          364 . Kpoints trimmed:          352

siesta: k-grid: Number of k-points =   352
siesta: k-grid: Cutoff (effective) =     5.000 Ang
siesta: k-grid: Supercell and displacements
siesta: k-grid:   26   0   0      0.000
siesta: k-grid:    0  26   0      0.000
siesta: k-grid:    0   0   1      0.000
Naive supercell factors:     2    2    2

superc: Internal auxiliary supercell:     2 x     2 x     2  =       8
superc: Number of atoms, orbitals, and projectors:    576   7488   9216

siesta:                 ==============================
                            Begin MD step =      1

superc: Internal auxiliary supercell:     2 x     2 x     2  =       8
superc: Number of atoms, orbitals, and projectors:    576   7488   9216

outcell: Unit cell vectors (Ang):
       14.785000    0.000000    0.000000
        7.393000   12.805052    0.000000
        0.000000    0.000000   10.000000

outcell: Cell vector modules (Ang)   :   14.785000   14.786000   10.000000
outcell: Cell angles (23,13,12) (deg):     90.0000     90.0000     60.0000
outcell: Cell volume (Ang**3)        :   1893.2269
New_DM. Step:     1
Initializing Density Matrix...

InitMesh: MESH =   120 x   120 x    90 =     1296000
InitMesh: Mesh cutoff (required, used) =   200.000   223.865 Ry

stepf: Fermi-Dirac step function

siesta: Program's energy decomposition (eV):
siesta: Ebs     =     -4462.379377
siesta: Eions   =     17250.500670
siesta: Ena     =      3769.672184
siesta: Ekin    =      5903.534022
siesta: Enl     =       294.189093
siesta: DEna    =        -0.000010
siesta: DUscf   =         0.000000
siesta: DUext   =         0.000000
siesta: Exc     =     -3961.779143
siesta: eta*DQ  =         0.000000
siesta: Emadel  =         0.000000
siesta: Emeta   =         0.000000
siesta: Emolmec =         0.000000
siesta: Ekinion =         0.000000
siesta: Eharris =    -11173.320652
siesta: Etot    =    -11244.884525
siesta: FreeEng =    -11244.884525

siesta: E_KS(eV) =           -11145.3440

siesta: E_KS - E_eggbox =    -11145.3440

siesta: Atomic forces (eV/Ang):
   Tot    0.197723   -0.138267    0.000000
   Max    5.153951
   Res    1.343754    sqrt( Sum f_i^2 / 3N )
   Max    5.153951    constrained

Stress-tensor-Voigt (kbar):     -118.83     -118.94       -0.25       -0.12        0.00        0.00
(Free)E + p*V (eV/cell)   -11051.6189
Target enthalpy (eV/cell)   -11145.3714

siesta: Stress tensor (static) (eV/Ang**3):
        -0.074169   -0.000073    0.000000
        -0.000073   -0.074233    0.000000
         0.000000    0.000000   -0.000158

siesta: Pressure (static):         79.34054098  kBar

siesta: Stress tensor (total) (eV/Ang**3):
        -0.074169   -0.000073    0.000000
        -0.000073   -0.074233    0.000000
         0.000000    0.000000   -0.000158

siesta: Pressure (total):         79.34054098  kBar

siesta: Temp_ion =       0.000 K

siesta: Program's energy decomposition (eV):
siesta: Ebs     =     -3689.196675
siesta: Eions   =     17250.500670
siesta: Ena     =      3769.672184
siesta: Ekin    =      7408.155410
siesta: Enl     =      -692.124285
siesta: DEna    =      -342.836007
siesta: DUscf   =        36.413641
siesta: DUext   =         0.000000
siesta: Exc     =     -4074.124315
siesta: eta*DQ  =         0.000000
siesta: Emadel  =         0.000000
siesta: Emeta   =         0.000000
siesta: Emolmec =         0.000000
siesta: Ekinion =         0.000000
siesta: Eharris =    -11145.341415
siesta: Etot    =    -11145.344042
siesta: FreeEng =    -11145.371374

siesta: Final energy (eV):
siesta:  Band Struct. =   -3689.196675
siesta:       Kinetic =    7408.155410
siesta:       Hartree =   21699.108686
siesta:    Ext. field =       0.000000
siesta:   Exch.-corr. =   -4074.124315
siesta:  Ion-electron =  -50135.794874
siesta:       Ion-ion =   13957.311050
siesta:       Ekinion =       0.000000
siesta:         Total =  -11145.344042

siesta: Atomic forces (eV/Ang):
siesta:      1    0.540700   -0.401795    0.000000
siesta:      2   -0.283526   -3.633121    0.000000
siesta:      3    1.221751   -0.729772    0.000000
siesta:      4    0.029772   -3.277738    0.000000
siesta:      5    0.038872    0.979734    0.000000
siesta:      6   -2.614057    1.657759    0.000000
siesta:      7   -0.968051   -0.648377    0.000000
siesta:      8    0.030732    0.090453    0.000000
siesta:      9   -0.843138    1.391248    0.000000
siesta:     10   -2.880391    1.882725    0.000000
siesta:     11   -0.098636    0.469413    0.000000
siesta:     12   -3.136893    1.100319    0.000000
siesta:     13   -0.348184   -0.253093    0.000000
siesta:     14   -0.419531    0.273233    0.000000
siesta:     15   -0.511983   -0.676773    0.000000
siesta:     16    0.594093   -0.205858    0.000000
siesta:     17   -0.235839    0.114494    0.000000
siesta:     18   -0.312839   -0.118951    0.000000
siesta:     19   -0.144427    0.170974    0.000000
siesta:     20   -3.391098    2.198393    0.000000
siesta:     21    3.330531    2.192118    0.000000
siesta:     22    0.404546    0.297909    0.000000
siesta:     23    0.086686   -0.399317    0.000000
siesta:     24    3.028602   -1.898927    0.000000
siesta:     25   -0.103261    0.367368    0.000000
siesta:     26    0.067570   -0.812091    0.000000
siesta:     27    0.119522   -0.209079    0.000000
siesta:     28    0.180801   -4.083129    0.000000
siesta:     29   -4.574412   -2.638565    0.000000
siesta:     30    4.440430   -2.583313    0.000000
siesta:     31   -0.248415   -4.279500    0.000000
siesta:     32    2.814296    1.692023    0.000000
siesta:     33    0.106545    1.562324    0.000000
siesta:     34   -3.023764    1.490561    0.000000
siesta:     35    3.469682    1.870127    0.000000
siesta:     36   -0.050414    5.153951    0.000000
siesta:     37   -3.371508    1.849370    0.000000
siesta:     38    1.076402   -0.498647    0.000000
siesta:     39   -0.016337   -3.095000    0.000000
siesta:     40   -0.977677   -0.510781    0.000000
siesta:     41    0.076611    0.042493    0.000000
siesta:     42    0.763791   -0.389071    0.000000
siesta:     43    0.017965   -3.078412    0.000000
siesta:     44    2.902938    1.594230    0.000000
siesta:     45   -0.115331    1.010076    0.000000
siesta:     46   -2.820839    1.733605    0.000000
siesta:     47    0.300515   -0.224181    0.000000
siesta:     48   -0.034001    0.392022    0.000000
siesta:     49   -0.637619   -0.284967    0.000000
siesta:     50    0.152707    0.401588    0.000000
siesta:     51    3.076110    1.585934    0.000000
siesta:     52   -0.801111   -0.343685    0.000000
siesta:     53    0.032065    0.007636    0.000000
siesta:     54    2.928687    1.702703    0.000000
siesta:     55    0.889375   -0.391473    0.000000
siesta:     56   -0.111810   -3.054678    0.000000
siesta:     57    0.075328    1.086423    0.000000
siesta:     58   -2.959738    1.621607    0.000000
siesta:     59    0.656538   -0.354266    0.000000
siesta:     60   -0.148931    0.276461    0.000000
siesta:     61    2.643346    1.653390    0.000000
siesta:     62   -1.238245   -0.778945    0.000000
siesta:     63    0.488580    0.150778    0.000000
siesta:     64    0.018034   -0.210257    0.000000
siesta:     65    0.407520   -0.134841    0.000000
siesta:     66    0.024725    0.062013    0.000000
siesta:     67    0.527247   -0.289619    0.000000
siesta:     68   -0.157257    0.042898    0.000000
siesta:     69   -0.065460    0.030954    0.000000
siesta:     70    0.228552    0.160519    0.000000
siesta:     71    0.007582    0.001096    0.000000
siesta:     72    0.042697   -0.010965    0.000000
siesta: ----------------------------------------
siesta:    Tot    0.197723   -0.138267    0.000000

siesta: Stress tensor (static) (eV/Ang**3):
siesta:    -0.074169   -0.000073    0.000000
siesta:    -0.000073   -0.074233    0.000000
siesta:     0.000000    0.000000   -0.000158

siesta: Cell volume =       1893.226895 Ang**3

siesta: Pressure (static):
siesta:                Solid            Molecule  Units
siesta:           0.00053934          0.00062274  Ry/Bohr**3
siesta:           0.04951994          0.05717742  eV/Ang**3
siesta:          79.34054098         91.60932041  kBar
(Free)E+ p_basis*V_orbitals  =      -11111.790175
(Free)Eharris+ p_basis*V_orbitals  =      -11111.784658

siesta: Electric dipole (a.u.)  =    0.000000    0.000000    0.000000
siesta: Electric dipole (Debye) =    0.000000    0.000000    0.000000

elaps:  Routine       Calls   Time/call    Tot.time        %
elaps:  siesta            1   19168.089   19168.089   100.00
elaps:  Setup             1       0.483       0.483     0.00
elaps:  bands             1       0.002       0.002     0.00
elaps:  writewave         1       0.005       0.005     0.00
elaps:  KSV_init          1       0.001       0.001     0.00
elaps:  IterMD            1   19166.603   19166.603    99.99
elaps:  hsparse           1       0.048       0.048     0.00
elaps:  overlap           1       0.528       0.528     0.00
elaps:  IterSCF          23     832.279   19142.406    99.87
elaps:  kinefsm           2       0.278       0.555     0.00
elaps:  nlefsm            2       2.569       5.138     0.03
elaps:  DHSCF            24      13.133     315.188     1.64
elaps:  DHSCF1            1       0.125       0.125     0.00
elaps:  DHSCF2            1       5.253       5.253     0.03
elaps:  REORD           194       0.001       0.270     0.00
elaps:  POISON           25       0.280       6.997     0.04
elaps:  DHSCF3           24      12.554     301.300     1.57
elaps:  rhoofd           24       4.269     102.466     0.53
elaps:  cellXC           24       0.439      10.541     0.05
elaps:  vmat             24       6.441     154.573     0.81
elaps:  MolMec            2       0.000       0.000     0.00
elaps:  diagon           23     819.083   18838.910    98.28
elaps:  c-eigval       8096       0.838    6784.294    35.39
elaps:  c-buildHS      8096       0.017     133.666     0.70
elaps:  cdiag         16192       0.853   13816.719    72.08
elaps:  cdiag1        16192       0.053     855.723     4.46
elaps:  cdiag2        16192       0.240    3879.946    20.24
elaps:  cdiag3        16192       0.496    8027.684    41.88
elaps:  cdiag4        16192       0.029     464.941     2.43
elaps:  c-eigvec       8096       0.897    7264.484    37.90
elaps:  c-buildD       8096       0.588    4764.416    24.86
elaps:  DHSCF4            1       8.333       8.333     0.04
elaps:  dfscf             1       7.846       7.846     0.04
elaps:  overfsm           1       0.054       0.054     0.00
elaps:  optical           1       0.001       0.001     0.00

>> End of run:   1-DEC-2015   2:01:44