>> Start of run:  27-NOV-2015   3:50:15

reinit: Reading from standard input
************************** Dump of input data file ****************************
#(1) General system descriptors
SystemName            GRP_doping    # Descriptive name of the system
SystemLabel           GRP_doping    # Short name for naming files
%include STRUCT.fdf
%include KPT.fdf
%include BASIS.fdf
#%include TS.fdf # for transiesta calculation
#(4) DFT, Grid, SCF
XC.functional         GGA           # LDA or GGA (default = LDA)
XC.authors            PBE           # CA (Ceperley-Aldr) = PZ
                                    #    (Perdew-Zunger) - LDA - Default
                                    # PW92 (Perdew-Wang-92) - LDA
                                    # PBE (Perdew-Burke-Ernzerhof) - GGA
MeshCutoff            200.000000    Ry      # Default: 50.0 Ry ~ 0.444 Bohr
                                    #         100.0 Ry ~ 0.314 Bohr
MaxSCFIterations      500           # Default: 50
DM.MixingWeight       0.05          # Default: 0.25
DM.NumberPulay        10            # Default: 0
DM.PulayOnFile        F             # SystemLabel.P1, SystemLabel.P2
DM.Tolerance          1.d-4         # Default: 1.d-4
DM.UseSaveDM          .true.        # because of the bug
SCFMustConverge       .true.
NeglNonOverlapInt     F             # Default: F
#(5) Eigenvalue problem: order-N or diagonalization
SolutionMethod        Diagon        # or Transiesta
ElectronicTemperature 300.0 K       # Default: 300.0 K
#(6) Molecular dynamics and relaxations
#MD.TypeOfRun          CG            # Type of dynamics:
#MD.VariableCell       F
#MD.NumCGsteps         0           # 0 for single-point / 100 for gopt
#MD.MaxCGDispl         0.2 Bohr      # Default: 0.2 Bohr
#MD.MaxForceTol        0.02 eV/Ang   # Default: 0.04 eV/Ang
#MD.MaxStressTol       1.0 GPa       # Default: 1.0 GPa
# Geometry Constraints
#%block GeometryConstraints
#	position from 1 to 44
#%endblock GeometryConstraints
************************** End of input data file *****************************

reinit: -----------------------------------------------------------------------
reinit: System Name: GRP_doping
reinit: -----------------------------------------------------------------------
reinit: System Label: GRP_doping
reinit: -----------------------------------------------------------------------

initatom: Reading input for the pseudopotentials and atomic orbitals ----------
 Species number:            1  Label: B Atomic number:           5
 Species number:            2  Label: C Atomic number:           6
Ground state valence configuration:   2s02  2p01
Reading pseudopotential information in formatted form from B.psf

Valence configuration for pseudopotential generation:
2s( 2.00) rc: 1.74
2p( 1.00) rc: 1.74
3d( 0.00) rc: 1.74
4f( 0.00) rc: 1.74
Ground state valence configuration:   2s02  2p02
Reading pseudopotential information in formatted form from C.psf

Valence configuration for pseudopotential generation:
2s( 2.00) rc: 1.54
2p( 2.00) rc: 1.54
3d( 0.00) rc: 1.54
4f( 0.00) rc: 1.54
For B, standard SIESTA heuristics set lmxkb to 3
 (one more than the basis l, including polarization orbitals).
Use PS.lmax or PS.KBprojectors blocks to override.
For C, standard SIESTA heuristics set lmxkb to 3
 (one more than the basis l, including polarization orbitals).
Use PS.lmax or PS.KBprojectors blocks to override.

<basis_specs>
B                    Z=   5    Mass=  10.810        Charge= 0.17977+309
Lmxo=1 Lmxkb= 3    BasisType=split      Semic=F
L=0  Nsemic=0  Cnfigmx=2
          n=1  nzeta=2  polorb=0
            splnorm:   0.15000
               vcte:    0.0000
               rinn:    0.0000
                rcs:    0.0000      0.0000
            lambdas:    1.0000      1.0000
L=1  Nsemic=0  Cnfigmx=2
          n=1  nzeta=2  polorb=1
            splnorm:   0.15000
               vcte:    0.0000
               rinn:    0.0000
                rcs:    0.0000      0.0000
            lambdas:    1.0000      1.0000
L=0  Nkbl=1  erefs: 0.17977+309
L=1  Nkbl=1  erefs: 0.17977+309
L=2  Nkbl=1  erefs: 0.17977+309
L=3  Nkbl=1  erefs: 0.17977+309
</basis_specs>

atom: Called for B                     (Z =   5)

read_vps: Pseudopotential generation method:
read_vps: ATM3      Troullier-Martins
Total valence charge:    3.00000

read_vps: Pseudopotential includes a core correction:
read_vps: Pseudo-core for xc-correction

xc_check: Exchange-correlation functional:
xc_check: GGA Perdew, Burke & Ernzerhof 1996
V l=0 = -2*Zval/r beyond r=  1.7165
V l=1 = -2*Zval/r beyond r=  1.7165
V l=2 = -2*Zval/r beyond r=  1.7165
V l=3 = -2*Zval/r beyond r=  1.6951
All V_l potentials equal beyond r=  1.7165
This should be close to max(r_c) in ps generation
All pots = -2*Zval/r beyond r=  1.7165

VLOCAL1: 99.0% of the norm of Vloc inside     14.733 Ry
VLOCAL1: 99.9% of the norm of Vloc inside     33.577 Ry
atom: Maximum radius for 4*pi*r*r*local-pseudopot. charge    2.04484
atom: Maximum radius for r*vlocal+2*Zval:    1.75994
GHOST: No ghost state for L =  0
GHOST: No ghost state for L =  1
GHOST: No ghost state for L =  2
GHOST: No ghost state for L =  3

KBgen: Kleinman-Bylander projectors:
   l= 0   rc=  1.897051   el= -0.693730   Ekb=  4.595746   kbcos=  0.286105
   l= 1   rc=  1.920920   el= -0.265236   Ekb= -2.350715   kbcos= -0.315747
   l= 2   rc=  2.044840   el=  0.002055   Ekb= -0.690767   kbcos= -0.013822
   l= 3   rc=  2.149707   el=  0.003188   Ekb= -0.315358   kbcos= -0.002055

KBgen: Total number of  Kleinman-Bylander projectors:   16
atom: -------------------------------------------------------------------------

atom: SANKEY-TYPE ORBITALS:
atom: Selected multiple-zeta basis: split

SPLIT: Orbitals with angular momentum L= 0

SPLIT: Basis orbitals for state 2s

SPLIT: PAO cut-off radius determined from an
SPLIT: energy shift=  0.007350 Ry

   izeta = 1
                 lambda =    1.000000
                     rc =    5.422032
                 energy =   -0.686029
                kinetic =    0.576707
    potential(screened) =   -1.262736
       potential(ionic) =   -3.271094

   izeta = 2
                 rmatch =    4.222573
              splitnorm =    0.150000
                 energy =   -0.602132
                kinetic =    0.858975
    potential(screened) =   -1.461107
       potential(ionic) =   -3.582536

[...]

SPLIT: Basis orbitals for state 2p

[...]

POLgen: Perturbative polarization orbital with L=  2

POLgen: Polarization orbital for state 2p

   izeta = 1
                     rc =    6.790259
                 energy =    0.684082
                kinetic =    1.471481
    potential(screened) =   -0.787399
       potential(ionic) =   -2.406985
atom: Total number of Sankey-type orbitals: 13

atm_pop: Valence configuration (for local Pseudopot. screening):
 2s( 2.00)
 2p( 1.00)
Vna: chval, zval:    3.00000   3.00000

Vna:  Cut-off radius for the neutral-atom potential:   6.790259
comcore: Pseudo-core radius Rcore=  2.122997

atom: _________________________________________________________________________

<basis_specs>
C                    Z=   6    Mass=  12.010        Charge= 0.17977+309
Lmxo=1 Lmxkb= 3    BasisType=split      Semic=F
L=0  Nsemic=0  Cnfigmx=2
          n=1  nzeta=2  polorb=0
            splnorm:   0.15000
               vcte:    0.0000
               rinn:    0.0000
                rcs:    0.0000      0.0000
            lambdas:    1.0000      1.0000
L=1  Nsemic=0  Cnfigmx=2
          n=1  nzeta=2  polorb=1
            splnorm:   0.15000
               vcte:    0.0000
               rinn:    0.0000
                rcs:    0.0000      0.0000
            lambdas:    1.0000      1.0000
L=0  Nkbl=1  erefs: 0.17977+309
L=1  Nkbl=1  erefs: 0.17977+309
L=2  Nkbl=1  erefs: 0.17977+309
L=3  Nkbl=1  erefs: 0.17977+309
</basis_specs>

atom: Called for C                     (Z =   6)

read_vps: Pseudopotential generation method:
read_vps: ATM3      Troullier-Martins
Total valence charge:    4.00000

read_vps: Pseudopotential includes a core correction:
read_vps: Pseudo-core for xc-correction

xc_check: Exchange-correlation functional:
xc_check: GGA Perdew, Burke & Ernzerhof 1996
V l=0 = -2*Zval/r beyond r=  1.5227
V l=1 = -2*Zval/r beyond r=  1.5227
V l=2 = -2*Zval/r beyond r=  1.5227
V l=3 = -2*Zval/r beyond r=  1.5038
All V_l potentials equal beyond r=  1.5227
This should be close to max(r_c) in ps generation
All pots = -2*Zval/r beyond r=  1.5227

VLOCAL1: 99.0% of the norm of Vloc inside     18.722 Ry
VLOCAL1: 99.9% of the norm of Vloc inside     42.668 Ry
atom: Maximum radius for 4*pi*r*r*local-pseudopot. charge    1.83678
atom: Maximum radius for r*vlocal+2*Zval:    1.58088
GHOST: No ghost state for L =  0
GHOST: No ghost state for L =  1
GHOST: No ghost state for L =  2
GHOST: No ghost state for L =  3

KBgen: Kleinman-Bylander projectors:
   l= 0   rc=  1.704034   el= -1.009801   Ekb=  5.335044   kbcos=  0.316824
   l= 1   rc=  1.704034   el= -0.388707   Ekb= -3.785862   kbcos= -0.366464
   l= 2   rc=  1.791422   el=  0.001971   Ekb= -0.970471   kbcos= -0.009212
   l= 3   rc=  1.859892   el=  0.003065   Ekb= -0.399525   kbcos= -0.001223

KBgen: Total number of  Kleinman-Bylander projectors:   16
atom: -------------------------------------------------------------------------

atom: SANKEY-TYPE ORBITALS:
atom: Selected multiple-zeta basis: split

[...]

SPLIT: Basis orbitals for state 2s

[...]

SPLIT: Orbitals with angular momentum L= 1

SPLIT: Basis orbitals for state 2p

SPLIT: PAO cut-off radius determined from an
SPLIT: energy shift=  0.007350 Ry

   izeta = 1
                 lambda =    1.000000
                     rc =    5.658549
                 energy =   -0.381140
                kinetic =    2.399701
    potential(screened) =   -2.780841
       potential(ionic) =   -6.206085

   izeta = 2
                 rmatch =    3.653288
              splitnorm =    0.150000
                 energy =   -0.249149
                kinetic =    3.542762
    potential(screened) =   -3.791911
       potential(ionic) =   -7.581078

POLgen: Perturbative polarization orbital with L=  2

POLgen: Polarization orbital for state 2p

   izeta = 1
                     rc =    5.658549
                 energy =    1.109913
                kinetic =    2.304789
    potential(screened) =   -1.194876
       potential(ionic) =   -4.013592
atom: Total number of Sankey-type orbitals: 13

atm_pop: Valence configuration (for local Pseudopot. screening):
 2s( 2.00)
 2p( 2.00)
Vna: chval, zval:    4.00000   4.00000

Vna:  Cut-off radius for the neutral-atom potential:   5.658549
comcore: Pseudo-core radius Rcore=  1.791422

atom: _________________________________________________________________________

prinput: Basis input ----------------------------------------------------------

PAO.BasisType split

%block ChemicalSpeciesLabel
    1    5 B                       # Species index, atomic number, species label
    2    6 C                       # Species index, atomic number, species label
%endblock ChemicalSpeciesLabel

%block PAO.Basis                 # Define Basis set
B                     2                    # Species label, number of l-shells
[...]
siesta:     11.54857  17.45226   0.00000  1        7
siesta:     25.51851   9.38661   0.00000  1        8
siesta:     20.86274  17.45226   0.00000  1        9
siesta:      4.56367   2.66461   0.00000  2       10
siesta:     34.83141  22.82873   0.00000  2       11
siesta:     34.83116  17.45226   0.00000  2       12
siesta:     37.15930  18.79590   0.00000  2       13
siesta:     32.50291  13.41944   0.00000  2       14
siesta:     34.83104  14.76308   0.00000  2       15
siesta:     30.17465   9.38661   0.00000  2       16
siesta:     32.50278  10.73026   0.00000  2       17
siesta:     27.84639   5.35379   0.00000  2       18
siesta:     30.17453   6.69743   0.00000  2       19
siesta:     27.84714  21.48508   0.00000  2       20
siesta:     30.17527  22.82873   0.00000  2       21
siesta:      6.89168   1.32097   0.00000  2       22
siesta:      9.21981   2.66461   0.00000  2       23
siesta:     13.87595   2.66461   0.00000  2       24
siesta:     16.20396   1.32097   0.00000  2       25
siesta:     18.53210   2.66461   0.00000  2       26
siesta:     23.19013   2.66461   0.00000  2       27
siesta:     25.51813   1.32097   0.00000  2       28
siesta:     27.84627   2.66461   0.00000  2       29
siesta:      4.56380   5.35379   0.00000  2       30
siesta:      6.89193   6.69743   0.00000  2       31
siesta:      9.21994   5.35379   0.00000  2       32
siesta:     11.54807   6.69743   0.00000  2       33
siesta:     13.87608   5.35379   0.00000  2       34
siesta:     16.20421   6.69743   0.00000  2       35
siesta:     18.53411   5.35379   0.00000  2       36
siesta:     20.86224   6.69743   0.00000  2       37
siesta:     23.19025   5.35379   0.00000  2       38
siesta:     25.51838   6.69743   0.00000  2       39
siesta:      9.22019  10.73026   0.00000  2       40
siesta:     11.54820   9.38661   0.00000  2       41
siesta:     13.87633  10.73026   0.00000  2       42
siesta:     18.53247  10.73026   0.00000  2       43
siesta:     20.86237   9.38661   0.00000  2       44
siesta:     23.19050  10.73026   0.00000  2       45
siesta:      9.22031  13.41944   0.00000  2       46
siesta:     11.54845  14.76308   0.00000  2       47
siesta:     13.87645  13.41944   0.00000  2       48
siesta:     16.20459  14.76308   0.00000  2       49
siesta:     18.53448  13.41944   0.00000  2       50
siesta:     20.86262  14.76308   0.00000  2       51
siesta:     13.87670  18.79590   0.00000  2       52
siesta:     16.20471  17.45226   0.00000  2       53
siesta:     18.53284  18.79590   0.00000  2       54
siesta:     13.87683  21.48508   0.00000  2       55
siesta:     16.20496  22.82873   0.00000  2       56
siesta:     18.53486  21.48508   0.00000  2       57
siesta:     20.86299  22.82873   0.00000  2       58
siesta:     27.84664  10.73026   0.00000  2       59
siesta:     23.19063  13.41944   0.00000  2       60
siesta:     25.51876  14.76308   0.00000  2       61
siesta:     23.19088  18.79590   0.00000  2       62
siesta:     27.84677  13.41944   0.00000  2       63
siesta:     30.17490  14.76308   0.00000  2       64
siesta:     25.51888  17.45226   0.00000  2       65
siesta:     27.84702  18.79590   0.00000  2       66
siesta:     23.19100  21.48508   0.00000  2       67
siesta:     25.51913  22.82873   0.00000  2       68
siesta:     30.17503  17.45226   0.00000  2       69
siesta:     32.50316  18.79590   0.00000  2       70
siesta:     37.16131  21.48508   0.00000  2       71
siesta:     39.48945  22.82873   0.00000  2       72

siesta: System type = slab

initatomlists: Number of atoms, orbitals, and projectors:     72   936  1152

siesta: ******************** Simulation parameters ****************************
siesta:
siesta: The following are some of the parameters of the simulation.
siesta: A complete list of the parameters used, including default values,
siesta: can be found in file out.fdf
siesta:
redata: Non-Collinear-spin run           =     F
redata: SpinPolarized (Up/Down) run      =     F
redata: Number of spin components        =     1
redata: Long output                      =     F
redata: Number of Atomic Species         =        2
redata: Charge density info will appear in .RHO file
redata: Write Mulliken Pop.              =     NO
redata: Mesh Cutoff                      =   200.0000  Ry
redata: Net charge of the system         =     0.0000 |e|
redata: Max. number of SCF Iter          =      500
redata: SCF convergence failure will abort job
redata: Performing Pulay mixing using    =    10 iterations
redata: Mix DM in first SCF step ?       =     F
redata: Write Pulay info on disk?        =     F
redata: Discard 1st Pulay DM after  kick =     F
redata: New DM Mixing Weight             =     0.0500
redata: New DM Occupancy tolerance       = 0.000000000001
redata: No kicks to SCF
redata: DM Mixing Weight for Kicks       =     0.5000
redata: DM Tolerance for SCF             =     0.000100
redata: Require Energy convergence for SCF =     F
redata: DM Energy tolerance for SCF      =     0.000100 eV
redata: Require Harris convergence for SCF =     F
redata: DM Harris energy tolerance for SCF =     0.000100 eV
redata: Using Saved Data (generic)   =     F
redata: Use continuation files for DM    =     T
redata: Neglect nonoverlap interactions  =     F
redata: Method of Calculation            =     Diagonalization
redata: Divide and Conquer               =     T
redata: Electronic Temperature           =     0.0019  Ry
redata: Fix the spin of the system       =     F
redata: Dynamics option                  =     Verlet MD run
redata: Initial MD time step             =        1
redata:   Final MD time step             =        1
redata: Length of MD time step           =     1.0000  fs
redata: Initial Temperature of MD run    =     0.0000  K
redata: Perform a MD quench              =     F
redata: ***********************************************************************
Total number of electrons:   279.000000
Total ionic charge:   279.000000

* ProcessorY, Blocksize:    2  24

k-point displ. along   1 input, could be:     0.00    0.50
k-point displ. along   2 input, could be:     0.00    0.50
 Kpoints in:          364 . Kpoints trimmed:          352

siesta: k-grid: Number of k-points =   352
siesta: k-grid: Cutoff (effective) =     5.000 Ang
siesta: k-grid: Supercell and displacements
siesta: k-grid:   26   0   0      0.000
siesta: k-grid:    0  26   0      0.000
siesta: k-grid:    0   0   1      0.000
Naive supercell factors:     2    2    2

superc: Internal auxiliary supercell:     2 x     2 x     2  =       8
superc: Number of atoms, orbitals, and projectors:    576   7488   9216

siesta:                 ==============================
                            Begin MD step =      1

superc: Internal auxiliary supercell:     2 x     2 x     2  =       8
superc: Number of atoms, orbitals, and projectors:    576   7488   9216

outcell: Unit cell vectors (Ang):
       14.785000    0.000000    0.000000
        7.393000   12.805052    0.000000
        0.000000    0.000000   10.000000

outcell: Cell vector modules (Ang)   :   14.785000   14.786000   10.000000
outcell: Cell angles (23,13,12) (deg):     90.0000     90.0000     60.0000
outcell: Cell volume (Ang**3)        :   1893.2269
New_DM. Step:     1
Initializing Density Matrix...

InitMesh: MESH =   120 x   120 x    90 =     1296000
InitMesh: Mesh cutoff (required, used) =   200.000   223.865 Ry

stepf: Fermi-Dirac step function

siesta: Program's energy decomposition (eV):
siesta: Ebs     =     -4462.229973
siesta: Eions   =     17250.500670
siesta: Ena     =      3769.690136
siesta: Ekin    =      5903.534022
siesta: Enl     =       294.170963
siesta: DEna    =        -0.000010
siesta: DUscf   =         0.000000
siesta: DUext   =         0.000000
siesta: Exc     =     -3961.779276
siesta: eta*DQ  =         0.000000
siesta: Emadel  =         0.000000
siesta: Emeta   =         0.000000
siesta: Emolmec =         0.000000
siesta: Ekinion =         0.000000
siesta: Eharris =    -11173.175441
siesta: Etot    =    -11244.884835
siesta: FreeEng =    -11244.884835

siesta: E_KS(eV) =           -11145.0735

siesta: E_KS - E_eggbox =    -11145.0735

siesta: Atomic forces (eV/Ang):
   Tot    0.200073   -0.127257    0.000000
   Max    3.840898
   Res    1.177403    sqrt( Sum f_i^2 / 3N )
   Max    3.840898    constrained

Stress-tensor-Voigt (kbar):     -118.90     -118.32       -0.25       -0.18        0.00        0.00
(Free)E + p*V (eV/cell)   -11051.5753
Target enthalpy (eV/cell)   -11145.1102

siesta: Stress tensor (static) (eV/Ang**3):
        -0.074209   -0.000110    0.000000
        -0.000110   -0.073849    0.000000
         0.000000    0.000000   -0.000157

siesta: Pressure (static):         79.15637755  kBar

siesta: Stress tensor (total) (eV/Ang**3):
        -0.074209   -0.000110    0.000000
        -0.000110   -0.073849    0.000000
         0.000000    0.000000   -0.000157

siesta: Pressure (total):         79.15637755  kBar

siesta: Temp_ion =       0.000 K

siesta: Program's energy decomposition (eV):
siesta: Ebs     =     -3691.792439
siesta: Eions   =     17250.500670
siesta: Ena     =      3769.690136
siesta: Ekin    =      7407.106771
siesta: Enl     =      -692.002503
siesta: DEna    =      -342.146074
siesta: DUscf   =        36.452413
siesta: DUext   =         0.000000
siesta: Exc     =     -4073.673601
siesta: eta*DQ  =         0.000000
siesta: Emadel  =         0.000000
siesta: Emeta   =         0.000000
siesta: Emolmec =         0.000000
siesta: Ekinion =         0.000000
siesta: Eharris =    -11145.071215
siesta: Etot    =    -11145.073529
siesta: FreeEng =    -11145.110198

siesta: Final energy (eV):
siesta:  Band Struct. =   -3691.792439
siesta:       Kinetic =    7407.106771
siesta:       Hartree =   21691.767327
siesta:    Ext. field =       0.000000
siesta:   Exch.-corr. =   -4073.673601
siesta:  Ion-electron =  -50123.187338
siesta:       Ion-ion =   13952.913313
siesta:       Ekinion =       0.000000
siesta:         Total =  -11145.073529

siesta: Atomic forces (eV/Ang):
siesta:      1    0.028746   -0.006254    0.000000
siesta:      2    0.379007   -0.133971    0.000000
siesta:      3    0.079492    0.024393    0.000000
siesta:      4    0.407845   -0.303157    0.000000
siesta:      5    0.027910    0.054233    0.000000
siesta:      6    0.006742   -0.048484    0.000000
siesta:      7   -0.212817    0.010208    0.000000
siesta:      8    0.012329    0.066454    0.000000
siesta:      9    0.052877   -0.000926    0.000000
siesta:     10    2.655997    1.532900    0.000000
siesta:     11    3.241832   -1.681689    0.000000
siesta:     12   -0.602916   -0.039240    0.000000
siesta:     13   -2.439172    1.525908    0.000000
siesta:     14   -0.327689   -0.182577    0.000000
siesta:     15   -0.182027    0.222944    0.000000
siesta:     16   -0.033024    1.048570    0.000000
siesta:     17   -2.881347    1.659810    0.000000
siesta:     18   -0.831838   -0.475374    0.000000
siesta:     19   -0.025007   -0.080284    0.000000
siesta:     20   -0.371908    0.433346    0.000000
siesta:     21   -3.114062    1.305965    0.000000
siesta:     22   -0.014130    0.986143    0.000000
siesta:     23   -2.693073    1.530893    0.000000
siesta:     24    2.880130    1.597649    0.000000
siesta:     25   -0.674763    1.187590    0.000000
siesta:     26   -2.826401    1.863742    0.000000
siesta:     27    2.774108    1.794381    0.000000
siesta:     28    0.056487    1.108791    0.000000
siesta:     29   -2.739802    1.495730    0.000000
siesta:     30    0.849543   -0.539730    0.000000
siesta:     31   -0.013179   -3.110525    0.000000
siesta:     32   -0.940738   -0.555729    0.000000
siesta:     33    0.123886    0.014389    0.000000
siesta:     34    0.878893   -0.368519    0.000000
siesta:     35   -0.064095   -3.063628    0.000000
siesta:     36   -0.993284   -0.636313    0.000000
siesta:     37   -0.026977    0.105762    0.000000
siesta:     38    1.057015   -0.588836    0.000000
siesta:     39   -0.000680   -3.079381    0.000000
siesta:     40    2.705733    1.727716    0.000000
siesta:     41    0.116735    1.089867    0.000000
siesta:     42   -2.768454    1.569260    0.000000
siesta:     43    2.732284    1.567164    0.000000
siesta:     44   -0.093322    0.977930    0.000000
siesta:     45   -2.618914    1.677277    0.000000
siesta:     46    1.160992   -0.787770    0.000000
siesta:     47   -0.169697   -3.121681    0.000000
siesta:     48   -0.834727   -0.651570    0.000000
siesta:     49    0.007765   -0.064131    0.000000
siesta:     50    0.801072   -0.621136    0.000000
siesta:     51    0.122680   -3.098629    0.000000
siesta:     52    2.724258    1.569956    0.000000
siesta:     53   -0.009766    1.080754    0.000000
siesta:     54   -2.627293    1.595243    0.000000
siesta:     55    1.019840   -0.398323    0.000000
siesta:     56   -0.029432   -3.107898    0.000000
siesta:     57   -0.856415   -0.508268    0.000000
siesta:     58   -0.085349    0.009723    0.000000
siesta:     59    2.843969    1.587346    0.000000
siesta:     60   -1.114530   -0.712897    0.000000
siesta:     61    0.380992    0.116956    0.000000
siesta:     62    2.718084    1.743234    0.000000
siesta:     63    0.332612   -0.198156    0.000000
siesta:     64   -0.193289    0.486694    0.000000
siesta:     65    0.282833    0.463272    0.000000
siesta:     66    0.110386   -0.412838    0.000000
siesta:     67    0.853447   -0.523265    0.000000
siesta:     68   -0.162665   -3.483112    0.000000
siesta:     69    0.519030   -0.446021    0.000000
siesta:     70   -0.381938   -3.840898    0.000000
siesta:     71   -0.928339    0.069139    0.000000
siesta:     72    0.137577   -0.157381    0.000000
siesta: ----------------------------------------
siesta:    Tot    0.200073   -0.127257    0.000000

siesta: Stress tensor (static) (eV/Ang**3):
siesta:    -0.074209   -0.000110    0.000000
siesta:    -0.000110   -0.073849    0.000000
siesta:     0.000000    0.000000   -0.000157

siesta: Cell volume =       1893.226895 Ang**3

siesta: Pressure (static):
siesta:                Solid            Molecule  Units
siesta:           0.00053808          0.00085319  Ry/Bohr**3
siesta:           0.04940499          0.07833693  eV/Ang**3
siesta:          79.15637755        125.51095188  kBar
(Free)E+ p_basis*V_orbitals  =      -11111.528999
(Free)Eharris+ p_basis*V_orbitals  =      -11111.527571

siesta: Electric dipole (a.u.)  =    0.000000    0.000000    0.000000
siesta: Electric dipole (Debye) =    0.000000    0.000000    0.000000

elaps:  Routine       Calls   Time/call    Tot.time        %
elaps:  siesta            1   19327.993   19327.993   100.00
elaps:  Setup             1       0.379       0.379     0.00
elaps:  bands             1       0.001       0.001     0.00
elaps:  writewave         1       0.002       0.002     0.00
elaps:  KSV_init          1       0.000       0.000     0.00
elaps:  IterMD            1   19326.594   19326.594    99.99
elaps:  hsparse           1       0.049       0.049     0.00
elaps:  overlap           1       0.972       0.972     0.01
elaps:  IterSCF          23     839.236   19302.430    99.87
elaps:  kinefsm           2       0.503       1.007     0.01
elaps:  nlefsm            2       2.587       5.173     0.03
elaps:  DHSCF            24      13.761     330.259     1.71
elaps:  DHSCF1            1       0.130       0.130     0.00
elaps:  DHSCF2            1       5.439       5.439     0.03
elaps:  REORD           194       0.001       0.251     0.00
elaps:  POISON           25       0.283       7.063     0.04
elaps:  DHSCF3           24      13.180     316.315     1.64
elaps:  rhoofd           24       4.218     101.235     0.52
elaps:  cellXC           24       0.442      10.612     0.05
elaps:  vmat             24       6.900     165.602     0.86
elaps:  MolMec            2       0.000       0.000     0.00
elaps:  diagon           23     825.459   18985.549    98.23
elaps:  c-eigval       8096       0.839    6790.304    35.13
elaps:  c-buildHS      8096       0.017     136.439     0.71
elaps:  cdiag         16192       0.851   13782.226    71.31
elaps:  cdiag1        16192       0.053     859.027     4.44
elaps:  cdiag2        16192       0.240    3880.403    20.08
elaps:  cdiag3        16192       0.496    8032.865    41.56
elaps:  cdiag4        16192       0.029     474.042     2.45
elaps:  c-eigvec       8096       0.892    7220.564    37.36
elaps:  c-buildD       8096       0.613    4964.439    25.69
elaps:  DHSCF4            1       8.204       8.204     0.04
elaps:  dfscf             1       7.719       7.719     0.04
elaps:  overfsm           1       0.055       0.055     0.00
elaps:  optical           1       0.000       0.000     0.00

>> End of run:  27-NOV-2015   9:12:23