>> Start of run:   8-DEC-2015  14:30:05

reinit: Reading from standard input
************************** Dump of input data file ****************************
#(1) General system descriptors
SystemName            GRP_doping    # Descriptive name of the system
SystemLabel           GRP_doping    # Short name for naming files
%include STRUCT.fdf
%include KPT.fdf
%include BASIS.fdf
#%include TS.fdf # for transiesta calculation
#(4) DFT, Grid, SCF
XC.functional         GGA           # LDA or GGA (default = LDA)
XC.authors            PBE           # CA (Ceperley-Aldr) = PZ
                                    #    (Perdew-Zunger) - LDA - Default
                                    # PW92 (Perdew-Wang-92) - LDA
                                    # PBE (Perdew-Burke-Ernzerhof) - GGA
MeshCutoff            200.000000    Ry      # Default: 50.0 Ry ~ 0.444 Bohr
                                    #         100.0 Ry ~ 0.314 Bohr
MaxSCFIterations      500           # Default: 50
DM.MixingWeight       0.05          # Default: 0.25
DM.NumberPulay        10            # Default: 0
DM.PulayOnFile        F             # SystemLabel.P1, SystemLabel.P2
DM.Tolerance          1.d-4         # Default: 1.d-4
DM.UseSaveDM          .true.        # because of the bug
SCFMustConverge       .true.
NeglNonOverlapInt     F             # Default: F
#(5) Eigenvalue problem: order-N or diagonalization
SolutionMethod        Diagon        # or Transiesta
ElectronicTemperature 300.0 K       # Default: 300.0 K
#(6) Molecular dynamics and relaxations
#MD.TypeOfRun          CG            # Type of dynamics:
#MD.VariableCell       F
#MD.NumCGsteps         0           # 0 for single-point / 100 for gopt
#MD.MaxCGDispl         0.2 Bohr      # Default: 0.2 Bohr
#MD.MaxForceTol        0.02 eV/Ang   # Default: 0.04 eV/Ang
#MD.MaxStressTol       1.0 GPa       # Default: 1.0 GPa
# Geometry Constraints
#%block GeometryConstraints
#	position from 1 to 44
#%endblock GeometryConstraints
************************** End of input data file *****************************

reinit: -----------------------------------------------------------------------
reinit: System Name: GRP_doping
reinit: -----------------------------------------------------------------------
reinit: System Label: GRP_doping
reinit: -----------------------------------------------------------------------

initatom: Reading input for the pseudopotentials and atomic orbitals ----------
 Species number:            1  Label: C Atomic number:           6
 Species number:            2  Label: B Atomic number:           5
Ground state valence configuration:   2s02  2p02
Reading pseudopotential information in formatted form from C.psf

Valence configuration for pseudopotential generation:
2s( 2.00) rc: 1.54
2p( 2.00) rc: 1.54
3d( 0.00) rc: 1.54
4f( 0.00) rc: 1.54
Ground state valence configuration:   2s02  2p01
Reading pseudopotential information in formatted form from B.psf

Valence configuration for pseudopotential generation:
2s( 2.00) rc: 1.74
2p( 1.00) rc: 1.74
3d( 0.00) rc: 1.74
4f( 0.00) rc: 1.74
For C, standard SIESTA heuristics set lmxkb to 3
 (one more than the basis l, including polarization orbitals).
Use PS.lmax or PS.KBprojectors blocks to override.
For B, standard SIESTA heuristics set lmxkb to 3
 (one more than the basis l, including polarization orbitals).
Use PS.lmax or PS.KBprojectors blocks to override.

<basis_specs>
C                    Z=   6    Mass=  12.010        Charge= 0.17977+309
Lmxo=1 Lmxkb= 3    BasisType=split      Semic=F
L=0  Nsemic=0  Cnfigmx=2
          n=1  nzeta=2  polorb=0
            splnorm:   0.15000
               vcte:    0.0000
               rinn:    0.0000
                rcs:    0.0000      0.0000
            lambdas:    1.0000      1.0000
L=1  Nsemic=0  Cnfigmx=2
          n=1  nzeta=2  polorb=1
            splnorm:   0.15000
               vcte:    0.0000
               rinn:    0.0000
                rcs:    0.0000      0.0000
            lambdas:    1.0000      1.0000
L=0  Nkbl=1  erefs: 0.17977+309
L=1  Nkbl=1  erefs: 0.17977+309
L=2  Nkbl=1  erefs: 0.17977+309
L=3  Nkbl=1  erefs: 0.17977+309
</basis_specs>

atom: Called for C                     (Z =   6)

read_vps: Pseudopotential generation method:
read_vps: ATM3      Troullier-Martins
Total valence charge:    4.00000

read_vps: Pseudopotential includes a core correction:
read_vps: Pseudo-core for xc-correction

xc_check: Exchange-correlation functional:
xc_check: GGA Perdew, Burke & Ernzerhof 1996
V l=0 = -2*Zval/r beyond r=  1.5227
V l=1 = -2*Zval/r beyond r=  1.5227
V l=2 = -2*Zval/r beyond r=  1.5227
V l=3 = -2*Zval/r beyond r=  1.5038
All V_l potentials equal beyond r=  1.5227
This should be close to max(r_c) in ps generation
All pots = -2*Zval/r beyond r=  1.5227

VLOCAL1: 99.0% of the norm of Vloc inside     18.722 Ry
VLOCAL1: 99.9% of the norm of Vloc inside     42.668 Ry
atom: Maximum radius for 4*pi*r*r*local-pseudopot. charge    1.83678
atom: Maximum radius for r*vlocal+2*Zval:    1.58088
GHOST: No ghost state for L =  0
GHOST: No ghost state for L =  1
GHOST: No ghost state for L =  2
GHOST: No ghost state for L =  3

KBgen: Kleinman-Bylander projectors:
   l= 0   rc=  1.704034   el= -1.009801   Ekb=  5.335044   kbcos=  0.316824
   l= 1   rc=  1.704034   el= -0.388707   Ekb= -3.785862   kbcos= -0.366464
   l= 2   rc=  1.791422   el=  0.001971   Ekb= -0.970471   kbcos= -0.009212
   l= 3   rc=  1.859892   el=  0.003065   Ekb= -0.399525   kbcos= -0.001223

KBgen: Total number of  Kleinman-Bylander projectors:   16
atom: -------------------------------------------------------------------------

atom: SANKEY-TYPE ORBITALS:
atom: Selected multiple-zeta basis: split

SPLIT: Orbitals with angular momentum L= 0

SPLIT: Basis orbitals for state 2s

SPLIT: PAO cut-off radius determined from an
SPLIT: energy shift=  0.007350 Ry

   izeta = 1
                 lambda =    1.000000
                     rc =    4.632753
                 energy =   -1.002270
                kinetic =    0.855760
    potential(screened) =   -1.858031
       potential(ionic) =   -5.417575

   izeta = 2
                 rmatch =    3.431921
              splitnorm =    0.150000
                 energy =   -0.867111
                kinetic =    1.300804
    potential(screened) =   -2.167915
       potential(ionic) =   -5.962684

[...]

SPLIT: Basis orbitals for state 2p

[...]

POLgen: Perturbative polarization orbital with L=  2

POLgen: Polarization orbital for state 2p

   izeta = 1
                     rc =    5.658549
                 energy =    1.109913
                kinetic =    2.304789
    potential(screened) =   -1.194876
       potential(ionic) =   -4.013592
atom: Total number of Sankey-type orbitals: 13

atm_pop: Valence configuration (for local Pseudopot. screening):
 2s( 2.00)
 2p( 2.00)
Vna: chval, zval:    4.00000   4.00000

Vna:  Cut-off radius for the neutral-atom potential:   5.658549
comcore: Pseudo-core radius Rcore=  1.791422

atom: _________________________________________________________________________

<basis_specs>
B                    Z=   5    Mass=  10.810        Charge= 0.17977+309
Lmxo=1 Lmxkb= 3    BasisType=split      Semic=F
L=0  Nsemic=0  Cnfigmx=2
          n=1  nzeta=2  polorb=0
            splnorm:   0.15000
               vcte:    0.0000
               rinn:    0.0000
                rcs:    0.0000      0.0000
            lambdas:    1.0000      1.0000
L=1  Nsemic=0  Cnfigmx=2
          n=1  nzeta=2  polorb=1
            splnorm:   0.15000
               vcte:    0.0000
               rinn:    0.0000
                rcs:    0.0000      0.0000
            lambdas:    1.0000      1.0000
L=0  Nkbl=1  erefs: 0.17977+309
L=1  Nkbl=1  erefs: 0.17977+309
L=2  Nkbl=1  erefs: 0.17977+309
L=3  Nkbl=1  erefs: 0.17977+309
</basis_specs>

atom: Called for B                     (Z =   5)

read_vps: Pseudopotential generation method:
read_vps: ATM3      Troullier-Martins
Total valence charge:    3.00000

read_vps: Pseudopotential includes a core correction:
read_vps: Pseudo-core for xc-correction

xc_check: Exchange-correlation functional:
xc_check: GGA Perdew, Burke & Ernzerhof 1996
V l=0 = -2*Zval/r beyond r=  1.7165
V l=1 = -2*Zval/r beyond r=  1.7165
V l=2 = -2*Zval/r beyond r=  1.7165
V l=3 = -2*Zval/r beyond r=  1.6951
All V_l potentials equal beyond r=  1.7165
This should be close to max(r_c) in ps generation
All pots = -2*Zval/r beyond r=  1.7165

VLOCAL1: 99.0% of the norm of Vloc inside     14.733 Ry
VLOCAL1: 99.9% of the norm of Vloc inside     33.577 Ry
atom: Maximum radius for 4*pi*r*r*local-pseudopot. charge    2.04484
atom: Maximum radius for r*vlocal+2*Zval:    1.75994
GHOST: No ghost state for L =  0
GHOST: No ghost state for L =  1
GHOST: No ghost state for L =  2
GHOST: No ghost state for L =  3

KBgen: Kleinman-Bylander projectors:
   l= 0   rc=  1.897051   el= -0.693730   Ekb=  4.595746   kbcos=  0.286105
   l= 1   rc=  1.920920   el= -0.265236   Ekb= -2.350715   kbcos= -0.315747
   l= 2   rc=  2.044840   el=  0.002055   Ekb= -0.690767   kbcos= -0.013822
   l= 3   rc=  2.149707   el=  0.003188   Ekb= -0.315358   kbcos= -0.002055

KBgen: Total number of  Kleinman-Bylander projectors:   16
atom: -------------------------------------------------------------------------

atom: SANKEY-TYPE ORBITALS:
atom: Selected multiple-zeta basis: split

[...]

SPLIT: Basis orbitals for state 2s

[...]

SPLIT: Orbitals with angular momentum L= 1

SPLIT: Basis orbitals for state 2p

SPLIT: PAO cut-off radius determined from an
SPLIT: energy shift=  0.007350 Ry

   izeta = 1
                 lambda =    1.000000
                     rc =    6.790259
                 energy =   -0.258578
                kinetic =    1.481412
    potential(screened) =   -1.739989
       potential(ionic) =   -3.657461

   izeta = 2
                 rmatch =    4.608740
              splitnorm =    0.150000
                 energy =   -0.173757
                kinetic =    2.186690
    potential(screened) =   -2.360447
       potential(ionic) =   -4.464260

POLgen: Perturbative polarization orbital with L=  2

POLgen: Polarization orbital for state 2p

   izeta = 1
                     rc =    6.790259
                 energy =    0.684082
                kinetic =    1.471481
    potential(screened) =   -0.787399
       potential(ionic) =   -2.406985
atom: Total number of Sankey-type orbitals: 13

atm_pop: Valence configuration (for local Pseudopot. screening):
 2s( 2.00)
 2p( 1.00)
Vna: chval, zval:    3.00000   3.00000

Vna:  Cut-off radius for the neutral-atom potential:   6.790259
comcore: Pseudo-core radius Rcore=  2.122997

atom: _________________________________________________________________________

prinput: Basis input ----------------------------------------------------------

PAO.BasisType split

%block ChemicalSpeciesLabel
    1    6 C                       # Species index, atomic number, species label
    2    5 B                       # Species index, atomic number, species label
%endblock ChemicalSpeciesLabel

%block PAO.Basis                 # Define Basis set
C                     2                    # Species label, number of l-shells
[...]
siesta:     34.83104  14.76308   0.00000  1        8
siesta:     30.17465   9.38661   0.00000  1        9
siesta:     32.50278  10.73026   0.00000  1       10
siesta:     27.84639   5.35379   0.00000  1       11
siesta:     30.17453   6.69743   0.00000  1       12
siesta:     27.84714  21.48508   0.00000  1       13
siesta:     30.17527  22.82873   0.00000  1       14
siesta:      6.89168   1.32097   0.00000  1       15
siesta:      9.21981   2.66461   0.00000  1       16
siesta:     11.54782   1.32097   0.00000  1       17
siesta:     13.87595   2.66461   0.00000  1       18
siesta:     16.20396   1.32097   0.00000  1       19
siesta:     18.53210   2.66461   0.00000  1       20
siesta:     20.86199   1.32097   0.00000  1       21
siesta:     23.19013   2.66461   0.00000  1       22
siesta:     25.51813   1.32097   0.00000  1       23
siesta:     27.84627   2.66461   0.00000  1       24
siesta:      4.56380   5.35379   0.00000  1       25
siesta:      6.89193   6.69743   0.00000  1       26
siesta:      9.21994   5.35379   0.00000  1       27
siesta:     11.54807   6.69743   0.00000  1       28
siesta:     13.87608   5.35379   0.00000  1       29
siesta:     16.20421   6.69743   0.00000  1       30
siesta:     18.53411   5.35379   0.00000  1       31
siesta:     20.86224   6.69743   0.00000  1       32
siesta:     23.19025   5.35379   0.00000  1       33
siesta:     25.51838   6.69743   0.00000  1       34
siesta:      6.89205   9.38661   0.00000  1       35
siesta:      9.22019  10.73026   0.00000  1       36
siesta:     11.54820   9.38661   0.00000  1       37
siesta:     13.87633  10.73026   0.00000  1       38
siesta:     16.20434   9.38661   0.00000  1       39
siesta:      9.22031  13.41944   0.00000  1       40
siesta:     11.54845  14.76308   0.00000  1       41
siesta:     13.87645  13.41944   0.00000  1       42
siesta:     16.20459  14.76308   0.00000  1       43
siesta:     18.53448  13.41944   0.00000  1       44
siesta:     20.86262  14.76308   0.00000  1       45
siesta:     11.54857  17.45226   0.00000  1       46
siesta:     13.87670  18.79590   0.00000  1       47
siesta:     16.20471  17.45226   0.00000  1       48
siesta:     18.53284  18.79590   0.00000  1       49
siesta:     13.87683  21.48508   0.00000  1       50
siesta:     16.20496  22.82873   0.00000  1       51
siesta:     18.53486  21.48508   0.00000  1       52
siesta:     20.86299  22.82873   0.00000  1       53
siesta:     25.51851   9.38661   0.00000  1       54
siesta:     27.84664  10.73026   0.00000  1       55
siesta:     23.19063  13.41944   0.00000  1       56
siesta:     25.51876  14.76308   0.00000  1       57
siesta:     20.86274  17.45226   0.00000  1       58
siesta:     23.19088  18.79590   0.00000  1       59
siesta:     27.84677  13.41944   0.00000  1       60
siesta:     30.17490  14.76308   0.00000  1       61
siesta:     25.51888  17.45226   0.00000  1       62
siesta:     27.84702  18.79590   0.00000  1       63
siesta:     23.19100  21.48508   0.00000  1       64
siesta:     25.51913  22.82873   0.00000  1       65
siesta:     30.17503  17.45226   0.00000  1       66
siesta:     32.50316  18.79590   0.00000  1       67
siesta:     37.16131  21.48508   0.00000  1       68
siesta:     39.48945  22.82873   0.00000  1       69
siesta:     18.53247  10.73026   0.00000  2       70
siesta:     20.86237   9.38661   0.00000  2       71
siesta:     23.19050  10.73026   0.00000  2       72

siesta: System type = slab

initatomlists: Number of atoms, orbitals, and projectors:     72   936  1152

siesta: ******************** Simulation parameters ****************************
siesta:
siesta: The following are some of the parameters of the simulation.
siesta: A complete list of the parameters used, including default values,
siesta: can be found in file out.fdf
siesta:
redata: Non-Collinear-spin run           =     F
redata: SpinPolarized (Up/Down) run      =     F
redata: Number of spin components        =     1
redata: Long output                      =     F
redata: Number of Atomic Species         =        2
redata: Charge density info will appear in .RHO file
redata: Write Mulliken Pop.              =     NO
redata: Mesh Cutoff                      =   200.0000  Ry
redata: Net charge of the system         =     0.0000 |e|
redata: Max. number of SCF Iter          =      500
redata: SCF convergence failure will abort job
redata: Performing Pulay mixing using    =    10 iterations
redata: Mix DM in first SCF step ?       =     F
redata: Write Pulay info on disk?        =     F
redata: Discard 1st Pulay DM after  kick =     F
redata: New DM Mixing Weight             =     0.0500
redata: New DM Occupancy tolerance       = 0.000000000001
redata: No kicks to SCF
redata: DM Mixing Weight for Kicks       =     0.5000
redata: DM Tolerance for SCF             =     0.000100
redata: Require Energy convergence for SCF =     F
redata: DM Energy tolerance for SCF      =     0.000100 eV
redata: Require Harris convergence for SCF =     F
redata: DM Harris energy tolerance for SCF =     0.000100 eV
redata: Using Saved Data (generic)   =     F
redata: Use continuation files for DM    =     T
redata: Neglect nonoverlap interactions  =     F
redata: Method of Calculation            =     Diagonalization
redata: Divide and Conquer               =     T
redata: Electronic Temperature           =     0.0019  Ry
redata: Fix the spin of the system       =     F
redata: Dynamics option                  =     Verlet MD run
redata: Initial MD time step             =        1
redata:   Final MD time step             =        1
redata: Length of MD time step           =     1.0000  fs
redata: Initial Temperature of MD run    =     0.0000  K
redata: Perform a MD quench              =     F
redata: ***********************************************************************
Total number of electrons:   285.000000
Total ionic charge:   285.000000

* ProcessorY, Blocksize:    2  24

k-point displ. along   1 input, could be:     0.00    0.50
k-point displ. along   2 input, could be:     0.00    0.50
 Kpoints in:          364 . Kpoints trimmed:          352

siesta: k-grid: Number of k-points =   352
siesta: k-grid: Cutoff (effective) =     5.000 Ang
siesta: k-grid: Supercell and displacements
siesta: k-grid:   26   0   0      0.000
siesta: k-grid:    0  26   0      0.000
siesta: k-grid:    0   0   1      0.000
Naive supercell factors:     2    2    2

superc: Internal auxiliary supercell:     2 x     2 x     2  =       8
superc: Number of atoms, orbitals, and projectors:    576   7488   9216

siesta:                 ==============================
                            Begin MD step =      1

superc: Internal auxiliary supercell:     2 x     2 x     2  =       8
superc: Number of atoms, orbitals, and projectors:    576   7488   9216

outcell: Unit cell vectors (Ang):
       14.785000    0.000000    0.000000
        7.393000   12.805052    0.000000
        0.000000    0.000000   10.000000

outcell: Cell vector modules (Ang)   :   14.785000   14.786000   10.000000
outcell: Cell angles (23,13,12) (deg):     90.0000     90.0000     60.0000
outcell: Cell volume (Ang**3)        :   1893.2269
New_DM. Step:     1
Initializing Density Matrix...

iodm: Reading Density Matrix from files

InitMesh: MESH =   120 x   120 x    90 =     1296000
InitMesh: Mesh cutoff (required, used) =   200.000   223.865 Ry

stepf: Fermi-Dirac step function

siesta: Program's energy decomposition (eV):
siesta: Ebs     =     -3858.620349
siesta: Eions   =     18018.840937
siesta: Ena     =      3907.486508
siesta: Ekin    =      7687.617199
siesta: Enl     =      -757.862998
siesta: DEna    =      -301.837688
siesta: DUscf   =        28.619041
siesta: DUext   =         0.000000
siesta: Exc     =     -4049.600744
siesta: eta*DQ  =         0.000000
siesta: Emadel  =         0.000000
siesta: Emeta   =         0.000000
siesta: Emolmec =         0.000000
siesta: Ekinion =         0.000000
siesta: Eharris =    -11504.418610
siesta: Etot    =    -11504.419619
siesta: FreeEng =    -11504.419619

siesta: E_KS(eV) =           -11504.4186

siesta: E_KS - E_eggbox =    -11504.4186

siesta: Atomic forces (eV/Ang):
   Tot    0.188476   -0.282767    0.000000
   Max    5.173783
   Res    0.799215    sqrt( Sum f_i^2 / 3N )
   Max    5.173783    constrained

Stress-tensor-Voigt (kbar):      -63.73      -62.77       -0.08       -0.45        0.00        0.00
(Free)E + p*V (eV/cell)   -11454.5926
Target enthalpy (eV/cell)   -11504.4495

siesta: Stress tensor (static) (eV/Ang**3):
        -0.039774   -0.000283    0.000000
        -0.000283   -0.039180    0.000000
         0.000000    0.000000   -0.000049

siesta: Pressure (static):         42.19271288  kBar

siesta: Stress tensor (total) (eV/Ang**3):
        -0.039774   -0.000283    0.000000
        -0.000283   -0.039180    0.000000
         0.000000    0.000000   -0.000049

siesta: Pressure (total):         42.19271288  kBar

siesta: Temp_ion =       0.000 K

Computing bands...

siesta: Program's energy decomposition (eV):
siesta: Ebs     =     -3858.620349
siesta: Eions   =     18018.840937
siesta: Ena     =      3907.486508
siesta: Ekin    =      7687.644799
siesta: Enl     =      -757.882123
siesta: DEna    =      -301.844110
siesta: DUscf   =        28.620464
siesta: DUext   =         0.000000
siesta: Exc     =     -4049.603210
siesta: eta*DQ  =         0.000000
siesta: Emadel  =         0.000000
siesta: Emeta   =         0.000000
siesta: Emolmec =         0.000000
siesta: Ekinion =         0.000000
siesta: Eharris =    -11504.418610
siesta: Etot    =    -11504.418608
siesta: FreeEng =    -11504.449504

siesta: Final energy (eV):
siesta:  Band Struct. =   -3858.620349
siesta:       Kinetic =    7687.644799
siesta:       Hartree =   22646.461568
siesta:    Ext. field =       0.000000
siesta:   Exch.-corr. =   -4049.603210
siesta:  Ion-electron =  -52358.523274
siesta:       Ion-ion =   14569.601509
siesta:       Ekinion =       0.000000
siesta:         Total =  -11504.418608

siesta: Atomic forces (eV/Ang):
siesta:      1   -0.224617   -0.055013    0.000000
siesta:      2    0.094243    0.063512    0.000000
siesta:      3    0.109179   -0.014634    0.000000
siesta:      4    0.035866   -0.115670    0.000000
siesta:      5    0.007140    0.098160    0.000000
siesta:      6    0.022434   -0.043201    0.000000
siesta:      7    0.175222   -0.086038    0.000000
siesta:      8    0.013447   -0.131461    0.000000
siesta:      9    0.121960    0.034187    0.000000
siesta:     10    0.130585    0.002636    0.000000
siesta:     11   -0.386397    0.017098    0.000000
siesta:     12    0.062941    0.167961    0.000000
siesta:     13    0.009394    0.069303    0.000000
siesta:     14   -0.128494    0.131629    0.000000
siesta:     15    0.009624    0.057180    0.000000
siesta:     16   -0.099112    0.064778    0.000000
siesta:     17    0.221335   -0.056282    0.000000
siesta:     18   -0.121485   -0.206986    0.000000
siesta:     19   -0.038882   -0.205331    0.000000
siesta:     20   -0.133423    0.087777    0.000000
siesta:     21   -0.029907    0.086164    0.000000
siesta:     22    0.167177    0.091739    0.000000
siesta:     23    0.065089   -0.205499    0.000000
siesta:     24    0.128906   -0.208953    0.000000
siesta:     25    0.022537   -0.015525    0.000000
siesta:     26   -0.003377   -0.015257    0.000000
siesta:     27   -0.022673   -0.021187    0.000000
siesta:     28   -0.056932    0.169797    0.000000
siesta:     29    0.404679    0.017797    0.000000
siesta:     30   -1.083047    0.395142    0.000000
siesta:     31    0.950066   -0.732166    0.000000
siesta:     32   -0.009340   -3.507246    0.000000
siesta:     33   -0.977310   -0.740546    0.000000
siesta:     34    1.111823    0.399970    0.000000
siesta:     35   -0.007542    0.059790    0.000000
siesta:     36   -0.120730    0.009560    0.000000
siesta:     37   -0.104735    0.035318    0.000000
siesta:     38   -0.040936   -0.548776    0.000000
siesta:     39   -3.083450   -1.564697    0.000000
siesta:     40   -0.174364   -0.079157    0.000000
siesta:     41    0.328054   -0.113277    0.000000
siesta:     42   -0.316381    0.132915    0.000000
siesta:     43    0.664494    0.306540    0.000000
siesta:     44   -0.866246    3.124375    0.000000
siesta:     45   -0.005092    0.907732    0.000000
siesta:     46   -0.047059    0.050890    0.000000
siesta:     47    0.102768    0.003976    0.000000
siesta:     48   -0.311108    0.085583    0.000000
siesta:     49    0.034251    0.064952    0.000000
siesta:     50    0.023568    0.065213    0.000000
siesta:     51   -0.021836    0.013265    0.000000
siesta:     52   -0.060212   -0.050358    0.000000
siesta:     53   -0.008222   -0.050836    0.000000
siesta:     54    3.090628   -1.557535    0.000000
siesta:     55    0.041139   -0.549287    0.000000
siesta:     56    0.849476    3.114191    0.000000
siesta:     57   -0.638966    0.314425    0.000000
siesta:     58   -0.024156   -0.016090    0.000000
siesta:     59   -0.001230    0.073494    0.000000
siesta:     60    0.331044    0.131423    0.000000
siesta:     61   -0.331830   -0.114359    0.000000
siesta:     62    0.326249    0.084100    0.000000
siesta:     63   -0.108975    0.003863    0.000000
siesta:     64    0.034729   -0.056155    0.000000
siesta:     65    0.053124    0.018835    0.000000
siesta:     66    0.047944    0.047477    0.000000
siesta:     67    0.000045   -0.042125    0.000000
siesta:     68   -0.133326   -0.010690    0.000000
siesta:     69    0.099650    0.134765    0.000000
siesta:     70   -3.862002    2.624858    0.000000
siesta:     71   -0.024880   -5.173783    0.000000
siesta:     72    3.905938    2.642982    0.000000
siesta: ----------------------------------------
siesta:    Tot    0.188476   -0.282767    0.000000

siesta: Stress tensor (static) (eV/Ang**3):
siesta:    -0.039774   -0.000283    0.000000
siesta:    -0.000283   -0.039180    0.000000
siesta:     0.000000    0.000000   -0.000049

siesta: Cell volume =       1893.226895 Ang**3

siesta: Pressure (static):
siesta:                Solid            Molecule  Units
siesta:           0.00028681          0.00016302  Ry/Bohr**3
siesta:           0.02633434          0.01496772  eV/Ang**3
siesta:          42.19271288         23.98118917  kBar
(Free)E+ p_basis*V_orbitals  =      -11472.764025
(Free)Eharris+ p_basis*V_orbitals  =      -11472.763016

siesta: Electric dipole (a.u.)  =    0.000000    0.000000    0.000000
siesta: Electric dipole (Debye) =    0.000000    0.000000    0.000000

elaps:  Routine       Calls   Time/call    Tot.time        %
elaps:  siesta            1     961.663     961.663   100.00
elaps:  Setup             1       0.490       0.490     0.05
elaps:  bands             3      33.974     101.923    10.60
elaps:  writewave         1       0.005       0.005     0.00
elaps:  KSV_init          1       0.001       0.001     0.00
elaps:  IterMD            1     858.257     858.257    89.25
elaps:  hsparse           1       0.049       0.049     0.01
elaps:  overlap           1       0.520       0.520     0.05
elaps:  IterSCF           1     835.222     835.222    86.85
elaps:  kinefsm           2       0.272       0.545     0.06
elaps:  nlefsm            2       2.419       4.838     0.50
elaps:  DHSCF             2      18.866      37.732     3.92
elaps:  DHSCF1            1       0.128       0.128     0.01
elaps:  DHSCF2            1       5.066       5.066     0.53
elaps:  REORD            18       0.001       0.026     0.00
elaps:  POISON            3       0.285       0.856     0.09
elaps:  DHSCF3            2      12.395      24.791     2.58
elaps:  rhoofd            2       3.959       7.918     0.82
elaps:  cellXC            2       0.449       0.899     0.09
elaps:  vmat              2       6.324      12.648     1.32
elaps:  MolMec            2       0.000       0.000     0.00
elaps:  diagon            1     812.341     812.341    84.47
elaps:  c-eigval        473       0.842     398.492    41.44
elaps:  c-buildHS       473       0.016       7.728     0.80
elaps:  cdiag           825       0.848     699.486    72.74
elaps:  cdiag1          825       0.053      43.783     4.55
elaps:  cdiag2          825       0.241     198.858    20.68
elaps:  cdiag3          825       0.498     410.645    42.70
elaps:  cdiag4          825       0.022      18.187     1.89
elaps:  c-eigvec        352       0.888     312.731    32.52
elaps:  c-buildD        352       0.575     202.575    21.07
elaps:  DHSCF4            1       7.727       7.727     0.80
elaps:  dfscf             1       7.254       7.254     0.75
elaps:  overfsm           1       0.050       0.050     0.01
elaps:  optical           1       0.001       0.001     0.00

>> End of run:   8-DEC-2015  14:46:07