>> Start of run:  25-NOV-2015  23:10:52

reinit: Reading from standard input
************************** Dump of input data file ****************************
#(1) General system descriptors
SystemName            GRP_doping    # Descriptive name of the system
SystemLabel           GRP_doping    # Short name for naming files
%include STRUCT.fdf
%include KPT.fdf
%include BASIS.fdf
#%include TS.fdf # for transiesta calculation
#(4) DFT, Grid, SCF
XC.functional         GGA           # LDA or GGA (default = LDA)
XC.authors            PBE           # CA (Ceperley-Aldr) = PZ
                                    #    (Perdew-Zunger) - LDA - Default
                                    # PW92 (Perdew-Wang-92) - LDA
                                    # PBE (Perdew-Burke-Ernzerhof) - GGA
MeshCutoff            200.000000    Ry      # Default: 50.0 Ry ~ 0.444 Bohr
                                    #         100.0 Ry ~ 0.314 Bohr
MaxSCFIterations      500           # Default: 50
DM.MixingWeight       0.05          # Default: 0.25
DM.NumberPulay        10            # Default: 0
DM.PulayOnFile        F             # SystemLabel.P1, SystemLabel.P2
DM.Tolerance          1.d-4         # Default: 1.d-4
DM.UseSaveDM          .true.        # because of the bug
SCFMustConverge       .true.
NeglNonOverlapInt     F             # Default: F
#(5) Eigenvalue problem: order-N or diagonalization
SolutionMethod        Diagon        # or Transiesta
ElectronicTemperature 300.0 K       # Default: 300.0 K
#(6) Molecular dynamics and relaxations
#MD.TypeOfRun          CG            # Type of dynamics:
#MD.VariableCell       F
#MD.NumCGsteps         0           # 0 for single-point / 100 for gopt
#MD.MaxCGDispl         0.2 Bohr      # Default: 0.2 Bohr
#MD.MaxForceTol        0.02 eV/Ang   # Default: 0.04 eV/Ang
#MD.MaxStressTol       1.0 GPa       # Default: 1.0 GPa
# Geometry Constraints
#%block GeometryConstraints
#	position from 1 to 44
#%endblock GeometryConstraints
************************** End of input data file *****************************

reinit: -----------------------------------------------------------------------
reinit: System Name: GRP_doping
reinit: -----------------------------------------------------------------------
reinit: System Label: GRP_doping
reinit: -----------------------------------------------------------------------

initatom: Reading input for the pseudopotentials and atomic orbitals ----------
 Species number:            1  Label: B Atomic number:           5
 Species number:            2  Label: C Atomic number:           6
Ground state valence configuration:   2s02  2p01
Reading pseudopotential information in formatted form from B.psf

Valence configuration for pseudopotential generation:
2s( 2.00) rc: 1.74
2p( 1.00) rc: 1.74
3d( 0.00) rc: 1.74
4f( 0.00) rc: 1.74
Ground state valence configuration:   2s02  2p02
Reading pseudopotential information in formatted form from C.psf

Valence configuration for pseudopotential generation:
2s( 2.00) rc: 1.54
2p( 2.00) rc: 1.54
3d( 0.00) rc: 1.54
4f( 0.00) rc: 1.54
For B, standard SIESTA heuristics set lmxkb to 3
 (one more than the basis l, including polarization orbitals).
Use PS.lmax or PS.KBprojectors blocks to override.
For C, standard SIESTA heuristics set lmxkb to 3
 (one more than the basis l, including polarization orbitals).
Use PS.lmax or PS.KBprojectors blocks to override.

<basis_specs>
B                    Z=   5    Mass=  10.810        Charge= 0.17977+309
Lmxo=1 Lmxkb= 3    BasisType=split      Semic=F
L=0  Nsemic=0  Cnfigmx=2
          n=1  nzeta=2  polorb=0
            splnorm:   0.15000
               vcte:    0.0000
               rinn:    0.0000
                rcs:    0.0000      0.0000
            lambdas:    1.0000      1.0000
L=1  Nsemic=0  Cnfigmx=2
          n=1  nzeta=2  polorb=1
            splnorm:   0.15000
               vcte:    0.0000
               rinn:    0.0000
                rcs:    0.0000      0.0000
            lambdas:    1.0000      1.0000
L=0  Nkbl=1  erefs: 0.17977+309
L=1  Nkbl=1  erefs: 0.17977+309
L=2  Nkbl=1  erefs: 0.17977+309
L=3  Nkbl=1  erefs: 0.17977+309
</basis_specs>

atom: Called for B                     (Z =   5)

read_vps: Pseudopotential generation method:
read_vps: ATM3      Troullier-Martins
Total valence charge:    3.00000

read_vps: Pseudopotential includes a core correction:
read_vps: Pseudo-core for xc-correction

xc_check: Exchange-correlation functional:
xc_check: GGA Perdew, Burke & Ernzerhof 1996
V l=0 = -2*Zval/r beyond r=  1.7165
V l=1 = -2*Zval/r beyond r=  1.7165
V l=2 = -2*Zval/r beyond r=  1.7165
V l=3 = -2*Zval/r beyond r=  1.6951
All V_l potentials equal beyond r=  1.7165
This should be close to max(r_c) in ps generation
All pots = -2*Zval/r beyond r=  1.7165

VLOCAL1: 99.0% of the norm of Vloc inside     14.733 Ry
VLOCAL1: 99.9% of the norm of Vloc inside     33.577 Ry
atom: Maximum radius for 4*pi*r*r*local-pseudopot. charge    2.04484
atom: Maximum radius for r*vlocal+2*Zval:    1.75994
GHOST: No ghost state for L =  0
GHOST: No ghost state for L =  1
GHOST: No ghost state for L =  2
GHOST: No ghost state for L =  3

KBgen: Kleinman-Bylander projectors:
   l= 0   rc=  1.897051   el= -0.693730   Ekb=  4.595746   kbcos=  0.286105
   l= 1   rc=  1.920920   el= -0.265236   Ekb= -2.350715   kbcos= -0.315747
   l= 2   rc=  2.044840   el=  0.002055   Ekb= -0.690767   kbcos= -0.013822
   l= 3   rc=  2.149707   el=  0.003188   Ekb= -0.315358   kbcos= -0.002055

KBgen: Total number of  Kleinman-Bylander projectors:   16
atom: -------------------------------------------------------------------------

atom: SANKEY-TYPE ORBITALS:
atom: Selected multiple-zeta basis: split

SPLIT: Orbitals with angular momentum L= 0

SPLIT: Basis orbitals for state 2s

SPLIT: PAO cut-off radius determined from an
SPLIT: energy shift=  0.007350 Ry

   izeta = 1
                 lambda =    1.000000
                     rc =    5.422032
                 energy =   -0.686029
                kinetic =    0.576707
    potential(screened) =   -1.262736
       potential(ionic) =   -3.271094

   izeta = 2
                 rmatch =    4.222573
              splitnorm =    0.150000
                 energy =   -0.602132
                kinetic =    0.858975
    potential(screened) =   -1.461107
       potential(ionic) =   -3.582536

[...]

SPLIT: Basis orbitals for state 2p

[...]

POLgen: Perturbative polarization orbital with L=  2

POLgen: Polarization orbital for state 2p

   izeta = 1
                     rc =    6.790259
                 energy =    0.684082
                kinetic =    1.471481
    potential(screened) =   -0.787399
       potential(ionic) =   -2.406985
atom: Total number of Sankey-type orbitals: 13

atm_pop: Valence configuration (for local Pseudopot. screening):
 2s( 2.00)
 2p( 1.00)
Vna: chval, zval:    3.00000   3.00000

Vna:  Cut-off radius for the neutral-atom potential:   6.790259
comcore: Pseudo-core radius Rcore=  2.122997

atom: _________________________________________________________________________

<basis_specs>
C                    Z=   6    Mass=  12.010        Charge= 0.17977+309
Lmxo=1 Lmxkb= 3    BasisType=split      Semic=F
L=0  Nsemic=0  Cnfigmx=2
          n=1  nzeta=2  polorb=0
            splnorm:   0.15000
               vcte:    0.0000
               rinn:    0.0000
                rcs:    0.0000      0.0000
            lambdas:    1.0000      1.0000
L=1  Nsemic=0  Cnfigmx=2
          n=1  nzeta=2  polorb=1
            splnorm:   0.15000
               vcte:    0.0000
               rinn:    0.0000
                rcs:    0.0000      0.0000
            lambdas:    1.0000      1.0000
L=0  Nkbl=1  erefs: 0.17977+309
L=1  Nkbl=1  erefs: 0.17977+309
L=2  Nkbl=1  erefs: 0.17977+309
L=3  Nkbl=1  erefs: 0.17977+309
</basis_specs>

atom: Called for C                     (Z =   6)

read_vps: Pseudopotential generation method:
read_vps: ATM3      Troullier-Martins
Total valence charge:    4.00000

read_vps: Pseudopotential includes a core correction:
read_vps: Pseudo-core for xc-correction

xc_check: Exchange-correlation functional:
xc_check: GGA Perdew, Burke & Ernzerhof 1996
V l=0 = -2*Zval/r beyond r=  1.5227
V l=1 = -2*Zval/r beyond r=  1.5227
V l=2 = -2*Zval/r beyond r=  1.5227
V l=3 = -2*Zval/r beyond r=  1.5038
All V_l potentials equal beyond r=  1.5227
This should be close to max(r_c) in ps generation
All pots = -2*Zval/r beyond r=  1.5227

VLOCAL1: 99.0% of the norm of Vloc inside     18.722 Ry
VLOCAL1: 99.9% of the norm of Vloc inside     42.668 Ry
atom: Maximum radius for 4*pi*r*r*local-pseudopot. charge    1.83678
atom: Maximum radius for r*vlocal+2*Zval:    1.58088
GHOST: No ghost state for L =  0
GHOST: No ghost state for L =  1
GHOST: No ghost state for L =  2
GHOST: No ghost state for L =  3

KBgen: Kleinman-Bylander projectors:
   l= 0   rc=  1.704034   el= -1.009801   Ekb=  5.335044   kbcos=  0.316824
   l= 1   rc=  1.704034   el= -0.388707   Ekb= -3.785862   kbcos= -0.366464
   l= 2   rc=  1.791422   el=  0.001971   Ekb= -0.970471   kbcos= -0.009212
   l= 3   rc=  1.859892   el=  0.003065   Ekb= -0.399525   kbcos= -0.001223

KBgen: Total number of  Kleinman-Bylander projectors:   16
atom: -------------------------------------------------------------------------

atom: SANKEY-TYPE ORBITALS:
atom: Selected multiple-zeta basis: split

[...]

SPLIT: Basis orbitals for state 2s

[...]

SPLIT: Orbitals with angular momentum L= 1

SPLIT: Basis orbitals for state 2p

SPLIT: PAO cut-off radius determined from an
SPLIT: energy shift=  0.007350 Ry

   izeta = 1
                 lambda =    1.000000
                     rc =    5.658549
                 energy =   -0.381140
                kinetic =    2.399701
    potential(screened) =   -2.780841
       potential(ionic) =   -6.206085

   izeta = 2
                 rmatch =    3.653288
              splitnorm =    0.150000
                 energy =   -0.249149
                kinetic =    3.542762
    potential(screened) =   -3.791911
       potential(ionic) =   -7.581078

POLgen: Perturbative polarization orbital with L=  2

POLgen: Polarization orbital for state 2p

   izeta = 1
                     rc =    5.658549
                 energy =    1.109913
                kinetic =    2.304789
    potential(screened) =   -1.194876
       potential(ionic) =   -4.013592
atom: Total number of Sankey-type orbitals: 13

atm_pop: Valence configuration (for local Pseudopot. screening):
 2s( 2.00)
 2p( 2.00)
Vna: chval, zval:    4.00000   4.00000

Vna:  Cut-off radius for the neutral-atom potential:   5.658549
comcore: Pseudo-core radius Rcore=  1.791422

atom: _________________________________________________________________________

prinput: Basis input ----------------------------------------------------------

PAO.BasisType split

%block ChemicalSpeciesLabel
    1    5 B                       # Species index, atomic number, species label
    2    6 C                       # Species index, atomic number, species label
%endblock ChemicalSpeciesLabel

%block PAO.Basis                 # Define Basis set
B                     2                    # Species label, number of l-shells
[...]
siesta:     32.50291  13.41944   0.00000  2        8
siesta:     34.83104  14.76308   0.00000  2        9
siesta:     30.17465   9.38661   0.00000  2       10
siesta:     32.50278  10.73026   0.00000  2       11
siesta:     27.84639   5.35379   0.00000  2       12
siesta:     30.17453   6.69743   0.00000  2       13
siesta:     27.84714  21.48508   0.00000  2       14
siesta:     30.17527  22.82873   0.00000  2       15
siesta:      6.89168   1.32097   0.00000  2       16
siesta:      9.21981   2.66461   0.00000  2       17
siesta:     11.54782   1.32097   0.00000  2       18
siesta:     13.87595   2.66461   0.00000  2       19
siesta:     18.53210   2.66461   0.00000  2       20
siesta:     20.86199   1.32097   0.00000  2       21
siesta:     23.19013   2.66461   0.00000  2       22
siesta:     25.51813   1.32097   0.00000  2       23
siesta:     27.84627   2.66461   0.00000  2       24
siesta:      4.56380   5.35379   0.00000  2       25
siesta:      6.89193   6.69743   0.00000  2       26
siesta:      9.21994   5.35379   0.00000  2       27
siesta:     11.54807   6.69743   0.00000  2       28
siesta:     13.87608   5.35379   0.00000  2       29
siesta:     16.20421   6.69743   0.00000  2       30
siesta:     18.53411   5.35379   0.00000  2       31
siesta:     20.86224   6.69743   0.00000  2       32
siesta:     23.19025   5.35379   0.00000  2       33
siesta:     25.51838   6.69743   0.00000  2       34
siesta:      6.89205   9.38661   0.00000  2       35
siesta:      9.22019  10.73026   0.00000  2       36
siesta:     11.54820   9.38661   0.00000  2       37
siesta:     13.87633  10.73026   0.00000  2       38
siesta:     16.20434   9.38661   0.00000  2       39
siesta:     18.53247  10.73026   0.00000  2       40
siesta:     20.86237   9.38661   0.00000  2       41
siesta:     23.19050  10.73026   0.00000  2       42
siesta:      9.22031  13.41944   0.00000  2       43
siesta:     11.54845  14.76308   0.00000  2       44
siesta:     13.87645  13.41944   0.00000  2       45
siesta:     16.20459  14.76308   0.00000  2       46
siesta:     18.53448  13.41944   0.00000  2       47
siesta:     20.86262  14.76308   0.00000  2       48
siesta:     11.54857  17.45226   0.00000  2       49
siesta:     13.87670  18.79590   0.00000  2       50
siesta:     16.20471  17.45226   0.00000  2       51
siesta:     18.53284  18.79590   0.00000  2       52
siesta:     13.87683  21.48508   0.00000  2       53
siesta:     16.20496  22.82873   0.00000  2       54
siesta:     18.53486  21.48508   0.00000  2       55
siesta:     20.86299  22.82873   0.00000  2       56
siesta:     25.51851   9.38661   0.00000  2       57
siesta:     27.84664  10.73026   0.00000  2       58
siesta:     23.19063  13.41944   0.00000  2       59
siesta:     25.51876  14.76308   0.00000  2       60
siesta:     20.86274  17.45226   0.00000  2       61
siesta:     23.19088  18.79590   0.00000  2       62
siesta:     27.84677  13.41944   0.00000  2       63
siesta:     30.17490  14.76308   0.00000  2       64
siesta:     25.51888  17.45226   0.00000  2       65
siesta:     27.84702  18.79590   0.00000  2       66
siesta:     23.19100  21.48508   0.00000  2       67
siesta:     25.51913  22.82873   0.00000  2       68
siesta:     30.17503  17.45226   0.00000  2       69
siesta:     32.50316  18.79590   0.00000  2       70
siesta:     37.16131  21.48508   0.00000  2       71
siesta:     39.48945  22.82873   0.00000  2       72

siesta: System type = slab

initatomlists: Number of atoms, orbitals, and projectors:     72   936  1152

siesta: ******************** Simulation parameters ****************************
siesta:
siesta: The following are some of the parameters of the simulation.
siesta: A complete list of the parameters used, including default values,
siesta: can be found in file out.fdf
siesta:
redata: Non-Collinear-spin run           =     F
redata: SpinPolarized (Up/Down) run      =     F
redata: Number of spin components        =     1
redata: Long output                      =     F
redata: Number of Atomic Species         =        2
redata: Charge density info will appear in .RHO file
redata: Write Mulliken Pop.              =     NO
redata: Mesh Cutoff                      =   200.0000  Ry
redata: Net charge of the system         =     0.0000 |e|
redata: Max. number of SCF Iter          =      500
redata: SCF convergence failure will abort job
redata: Performing Pulay mixing using    =    10 iterations
redata: Mix DM in first SCF step ?       =     F
redata: Write Pulay info on disk?        =     F
redata: Discard 1st Pulay DM after  kick =     F
redata: New DM Mixing Weight             =     0.0500
redata: New DM Occupancy tolerance       = 0.000000000001
redata: No kicks to SCF
redata: DM Mixing Weight for Kicks       =     0.5000
redata: DM Tolerance for SCF             =     0.000100
redata: Require Energy convergence for SCF =     F
redata: DM Energy tolerance for SCF      =     0.000100 eV
redata: Require Harris convergence for SCF =     F
redata: DM Harris energy tolerance for SCF =     0.000100 eV
redata: Using Saved Data (generic)   =     F
redata: Use continuation files for DM    =     T
redata: Neglect nonoverlap interactions  =     F
redata: Method of Calculation            =     Diagonalization
redata: Divide and Conquer               =     T
redata: Electronic Temperature           =     0.0019  Ry
redata: Fix the spin of the system       =     F
redata: Dynamics option                  =     Verlet MD run
redata: Initial MD time step             =        1
redata:   Final MD time step             =        1
redata: Length of MD time step           =     1.0000  fs
redata: Initial Temperature of MD run    =     0.0000  K
redata: Perform a MD quench              =     F
redata: ***********************************************************************
Total number of electrons:   286.000000
Total ionic charge:   286.000000

* ProcessorY, Blocksize:    2  24

k-point displ. along   1 input, could be:     0.00    0.50
k-point displ. along   2 input, could be:     0.00    0.50
 Kpoints in:          364 . Kpoints trimmed:          352

siesta: k-grid: Number of k-points =   352
siesta: k-grid: Cutoff (effective) =     5.000 Ang
siesta: k-grid: Supercell and displacements
siesta: k-grid:   26   0   0      0.000
siesta: k-grid:    0  26   0      0.000
siesta: k-grid:    0   0   1      0.000
Naive supercell factors:     2    2    2

superc: Internal auxiliary supercell:     2 x     2 x     2  =       8
superc: Number of atoms, orbitals, and projectors:    576   7488   9216

siesta:                 ==============================
                            Begin MD step =      1

superc: Internal auxiliary supercell:     2 x     2 x     2  =       8
superc: Number of atoms, orbitals, and projectors:    576   7488   9216

outcell: Unit cell vectors (Ang):
       14.785000    0.000000    0.000000
        7.393000   12.805052    0.000000
        0.000000    0.000000   10.000000

outcell: Cell vector modules (Ang)   :   14.785000   14.786000   10.000000
outcell: Cell angles (23,13,12) (deg):     90.0000     90.0000     60.0000
outcell: Cell volume (Ang**3)        :   1893.2269
New_DM. Step:     1
Initializing Density Matrix...

iodm: Reading Density Matrix from files

InitMesh: MESH =   120 x   120 x    90 =     1296000
InitMesh: Mesh cutoff (required, used) =   200.000   223.865 Ry

stepf: Fermi-Dirac step function

siesta: Program's energy decomposition (eV):
siesta: Ebs     =     -3883.465050
siesta: Eions   =     18146.897649
siesta: Ena     =      3930.204851
siesta: Ekin    =      7735.901509
siesta: Enl     =      -770.080802
siesta: DEna    =      -297.907167
siesta: DUscf   =        27.537811
siesta: DUext   =         0.000000
siesta: Exc     =     -4046.401636
siesta: eta*DQ  =         0.000000
siesta: Emadel  =         0.000000
siesta: Emeta   =         0.000000
siesta: Emolmec =         0.000000
siesta: Ekinion =         0.000000
siesta: Eharris =    -11567.640267
siesta: Etot    =    -11567.643083
siesta: FreeEng =    -11567.643083

siesta: E_KS(eV) =           -11567.6404

siesta: E_KS - E_eggbox =    -11567.6404

siesta: Atomic forces (eV/Ang):
   Tot    0.192937   -0.269149    0.000000
   Max    3.373904
   Res    0.584056    sqrt( Sum f_i^2 / 3N )
   Max    3.373904    constrained

Stress-tensor-Voigt (kbar):      -54.17      -53.00       -0.05       -0.41        0.00        0.00
(Free)E + p*V (eV/cell)   -11525.4222
Target enthalpy (eV/cell)   -11567.6516

siesta: Stress tensor (static) (eV/Ang**3):
        -0.033807   -0.000256    0.000000
        -0.000256   -0.033079    0.000000
         0.000000    0.000000   -0.000030

siesta: Pressure (static):         35.73773777  kBar

siesta: Stress tensor (total) (eV/Ang**3):
        -0.033807   -0.000256    0.000000
        -0.000256   -0.033079    0.000000
         0.000000    0.000000   -0.000030

siesta: Pressure (total):         35.73773777  kBar

siesta: Temp_ion =       0.000 K

siesta: Program's energy decomposition (eV):
siesta: Ebs     =     -3883.444977
siesta: Eions   =     18146.897649
siesta: Ena     =      3930.204851
siesta: Ekin    =      7735.918596
siesta: Enl     =      -770.086713
siesta: DEna    =      -297.913038
siesta: DUscf   =        27.537486
siesta: DUext   =         0.000000
siesta: Exc     =     -4046.403941
siesta: eta*DQ  =         0.000000
siesta: Emadel  =         0.000000
siesta: Emeta   =         0.000000
siesta: Emolmec =         0.000000
siesta: Ekinion =         0.000000
siesta: Eharris =    -11567.640280
siesta: Etot    =    -11567.640406
siesta: FreeEng =    -11567.651558

siesta: Final energy (eV):
siesta:  Band Struct. =   -3883.444977
siesta:       Kinetic =    7735.918596
siesta:       Hartree =   22791.271348
siesta:    Ext. field =       0.000000
siesta:   Exch.-corr. =   -4046.403941
siesta:  Ion-electron =  -52699.911618
siesta:       Ion-ion =   14651.485209
siesta:       Ekinion =       0.000000
siesta:         Total =  -11567.640406

siesta: Atomic forces (eV/Ang):
siesta:      1   -0.005552   -0.024516    0.000000
siesta:      2    0.019683   -0.028387    0.000000
siesta:      3    2.932348    1.682433    0.000000
siesta:      4   -0.451165   -0.271395    0.000000
siesta:      5    0.208178   -0.111309    0.000000
siesta:      6    0.050822   -0.064671    0.000000
siesta:      7    0.022375   -0.184141    0.000000
siesta:      8   -0.000805   -0.081035    0.000000
siesta:      9    0.053068    0.014208    0.000000
siesta:     10    0.008367   -0.278127    0.000000
siesta:     11    0.082821    0.081762    0.000000
siesta:     12   -0.513126   -0.280888    0.000000
siesta:     13    0.012150    0.313433    0.000000
siesta:     14    0.466122   -0.274166    0.000000
siesta:     15   -0.009827   -3.366449    0.000000
siesta:     16   -0.022695    0.566189    0.000000
siesta:     17   -0.001567   -0.278157    0.000000
siesta:     18    0.042090    0.563546    0.000000
siesta:     19   -2.935436    1.679992    0.000000
siesta:     20    2.973175    1.679119    0.000000
siesta:     21   -0.061195    0.570197    0.000000
siesta:     22   -0.004340   -0.280245    0.000000
siesta:     23    0.042660    0.564429    0.000000
siesta:     24   -2.920548    1.675555    0.000000
siesta:     25    0.515123   -0.274442    0.000000
siesta:     26   -0.090261    0.161543    0.000000
siesta:     27    0.005854   -0.041310    0.000000
siesta:     28    0.086368    0.160458    0.000000
siesta:     29   -0.510163   -0.280439    0.000000
siesta:     30    0.028534    0.310661    0.000000
siesta:     31    0.488588   -0.271401    0.000000
siesta:     32   -0.090452    0.160731    0.000000
siesta:     33    0.005796   -0.041288    0.000000
siesta:     34    0.085691    0.160330    0.000000
siesta:     35    0.039089    0.011956    0.000000
siesta:     36   -0.003667    0.038960    0.000000
siesta:     37   -0.039014    0.006576    0.000000
siesta:     38   -0.071457    0.087069    0.000000
siesta:     39    0.008179   -0.277519    0.000000
siesta:     40    0.109399    0.080158    0.000000
siesta:     41    0.023490    0.014818    0.000000
siesta:     42   -0.006050    0.037801    0.000000
siesta:     43   -0.006993   -0.011045    0.000000
siesta:     44   -0.042498    0.020732    0.000000
siesta:     45    0.020413   -0.080417    0.000000
siesta:     46    0.028683    0.014347    0.000000
siesta:     47   -0.042587   -0.072098    0.000000
siesta:     48    0.036420    0.019073    0.000000
siesta:     49   -0.049025   -0.063357    0.000000
siesta:     50   -0.152977   -0.013183    0.000000
siesta:     51    0.008592    0.008712    0.000000
siesta:     52    0.188257   -0.021155    0.000000
siesta:     53    0.485720   -0.278793    0.000000
siesta:     54    0.026689   -3.373904    0.000000
siesta:     55   -0.492952   -0.267632    0.000000
siesta:     56    0.164661   -0.108899    0.000000
siesta:     57   -0.039506    0.005930    0.000000
siesta:     58   -0.071744    0.087399    0.000000
siesta:     59    0.006941   -0.016359    0.000000
siesta:     60   -0.041663    0.019093    0.000000
siesta:     61    0.020504   -0.057628    0.000000
siesta:     62   -0.007269   -0.182409    0.000000
siesta:     63    0.016231   -0.079391    0.000000
siesta:     64   -0.001586    0.022116    0.000000
siesta:     65   -0.036230   -0.066696    0.000000
siesta:     66   -0.151260   -0.013400    0.000000
siesta:     67    0.007330    0.266783    0.000000
siesta:     68   -0.177684   -0.106058    0.000000
siesta:     69    0.006554    0.009221    0.000000
siesta:     70    0.147647   -0.013426    0.000000
siesta:     71   -0.033465    0.272965    0.000000
siesta:     72   -0.196917   -0.101707    0.000000
siesta: ----------------------------------------
siesta:    Tot    0.192937   -0.269149    0.000000

siesta: Stress tensor (static) (eV/Ang**3):
siesta:    -0.033807   -0.000256    0.000000
siesta:    -0.000256   -0.033079    0.000000
siesta:     0.000000    0.000000   -0.000030

siesta: Cell volume =       1893.226895 Ang**3

siesta: Pressure (static):
siesta:                Solid            Molecule  Units
siesta:           0.00024294          0.00047845  Ry/Bohr**3
siesta:           0.02230550          0.04392983  eV/Ang**3
siesta:          35.73773777         70.38410174  kBar
(Free)E+ p_basis*V_orbitals  =      -11536.282032
(Free)Eharris+ p_basis*V_orbitals  =      -11536.281214

siesta: Electric dipole (a.u.)  =    0.000000    0.000000    0.000000
siesta: Electric dipole (Debye) =    0.000000    0.000000    0.000000

elaps:  Routine       Calls   Time/call    Tot.time        %
elaps:  siesta            1    2511.555    2511.555   100.00
elaps:  Setup             1       0.386       0.386     0.02
elaps:  bands             1       0.001       0.001     0.00
elaps:  writewave         1       0.002       0.002     0.00
elaps:  KSV_init          1       0.000       0.000     0.00
elaps:  IterMD            1    2510.151    2510.151    99.94
elaps:  hsparse           1       0.050       0.050     0.00
elaps:  overlap           1       0.976       0.976     0.04
elaps:  IterSCF           3     829.022    2487.066    99.02
elaps:  kinefsm           2       0.502       1.005     0.04
elaps:  nlefsm            2       2.539       5.078     0.20
elaps:  DHSCF             4      15.099      60.396     2.40
elaps:  DHSCF1            1       0.129       0.129     0.01
elaps:  DHSCF2            1       5.053       5.053     0.20
elaps:  REORD            34       0.001       0.043     0.00
elaps:  POISON            5       0.285       1.423     0.06
elaps:  DHSCF3            4      11.873      47.491     1.89
elaps:  rhoofd            4       3.891      15.564     0.62
elaps:  cellXC            4       0.447       1.790     0.07
elaps:  vmat              4       6.144      24.575     0.98
elaps:  MolMec            2       0.000       0.000     0.00
elaps:  diagon            3     813.920    2441.760    97.22
elaps:  c-eigval       1056       0.839     885.663    35.26
elaps:  c-buildHS      1056       0.017      17.429     0.69
elaps:  cdiag          2112       0.848    1791.002    71.31
elaps:  cdiag1         2112       0.053     112.585     4.48
elaps:  cdiag2         2112       0.239     505.782    20.14
elaps:  cdiag3         2112       0.496    1047.199    41.70
elaps:  cdiag4         2112       0.026      55.697     2.22
elaps:  c-eigvec       1056       0.885     934.579    37.21
elaps:  c-buildD       1056       0.587     620.294    24.70
elaps:  DHSCF4            1       7.692       7.692     0.31
elaps:  dfscf             1       7.211       7.211     0.29
elaps:  overfsm           1       0.054       0.054     0.00
elaps:  optical           1       0.001       0.001     0.00

>> End of run:  25-NOV-2015  23:52:44